 vasp.5.4.4.18Apr17-6-g9f103f2a35 (build Dec 09 2018 21:25:21) complex

 executed on IFC18.0.1.163_CrayMP date 2019.03.19  13:01:52

 INCAR:
 POTCAR:   PAW_PBE Si 05Jan2001

 POTCAR:   PAW_PBE Si 05Jan2001
   VRHFIN =Si: s2p2

   TITEL  = PAW_PBE Si 05Jan2001
   POMASS =   28.085; ZVAL   =    4.000    mass and valenz
   ENMAX  =  245.345; ENMIN  =  184.009 eV
   QCUT   =   -4.246; QGAM   =    8.493    optimization parameters

   Description
     l     E      TYP  RCUT    TYP  RCUT
     0   .000     23  1.900
     0   .000     23  1.900
     1   .000     23  1.900
     1   .000     23  1.900
     2   .000      7  1.900

 PAW_PBE Si 05Jan2001                   :

 POSCAR: Si2
  positions in direct lattice
 exchange correlation table for  LEXCH =        8
   RHO(1)=    0.500       N(1)  =     2000
   RHO(2)=  100.500       N(2)  =     4000

 ion  position               nearest neighbor table
   1  0.250  0.750  0.500-   2 2.53   2 2.53   2 2.53   2 2.53   2 3.11   2 3.11   2 3.11   2 3.11

   2  0.000  0.000  0.000-   1 2.53   1 2.53   1 2.53   1 2.53   1 3.11   1 3.11   1 3.11   1 3.11

  LATTYP: Found a body centered tetragonal cell.
 ALAT       =     4.9000000000
 C/A-ratio  =     0.5200000000

  Lattice vectors:

 A1 = (  -2.4500000000,   2.4500000000,   1.2740000000)
 A2 = (   2.4500000000,  -2.4500000000,   1.2740000000)
 A3 = (   2.4500000000,   2.4500000000,  -1.2740000000)

Analysis of symmetry for initial positions (statically):
 Subroutine PRICEL returns:
 Original cell was already a primitive cell.

 Routine SETGRP: Setting up the symmetry group for a
 body centered tetragonal supercell.

 Subroutine GETGRP returns: Found 16 space group operations
 (whereof  8 operations were pure point group operations)
 out of a pool of 16 trial point group operations.

The static configuration has the point symmetry D_2d.
 The point group associated with its full space group is D_4h.

Analysis of symmetry for dynamics (positions and initial velocities):
 Subroutine PRICEL returns:
 Original cell was already a primitive cell.

 Routine SETGRP: Setting up the symmetry group for a
 body centered tetragonal supercell.

 Subroutine GETGRP returns: Found 16 space group operations
 (whereof  8 operations were pure point group operations)
 out of a pool of 16 trial point group operations.

The dynamic configuration has the point symmetry D_2d.
 The point group associated with its full space group is D_4h.

 Subroutine INISYM returns: Found 16 space group operations
 (whereof  8 operations are pure point group operations),
 and found     1 'primitive' translations

 KPOINTS: Automatic kpoint scheme

Automatic generation of k-mesh.
Space group operators:
 irot       det(A)        alpha          n_x          n_y          n_z        tau_x        tau_y        tau_z
    1     1.000000     0.000000     1.000000     0.000000     0.000000     0.000000     0.000000     0.000000
    2    -1.000000    90.000000    -0.000000    -0.000000    -1.000000     0.000000     0.000000     0.000000
    3     1.000000   180.000000    -0.000000    -0.000000    -1.000000     0.000000     0.000000     0.000000
    4    -1.000000    90.000000    -0.000000     0.000000     1.000000     0.000000     0.000000     0.000000
    5    -1.000000   180.000000     0.000000    -1.000000     0.000000     0.000000     0.000000     0.000000
    6     1.000000   180.000000     0.707107     0.707107    -0.000000     0.000000     0.000000     0.000000
    7    -1.000000   180.000000     1.000000     0.000000     0.000000     0.000000     0.000000     0.000000
    8     1.000000   180.000000     0.707107    -0.707107     0.000000     0.000000     0.000000     0.000000
    9    -1.000000     0.000000     1.000000     0.000000     0.000000     0.250000     0.750000     0.500000
   10     1.000000    90.000000    -0.000000    -0.000000    -1.000000     0.250000     0.750000     0.500000
   11    -1.000000   180.000000    -0.000000    -0.000000    -1.000000     0.250000     0.750000     0.500000
   12     1.000000    90.000000    -0.000000     0.000000     1.000000     0.250000     0.750000     0.500000
   13     1.000000   180.000000     0.000000    -1.000000     0.000000     0.250000     0.750000     0.500000
   14    -1.000000   180.000000     0.707107     0.707107    -0.000000     0.250000     0.750000     0.500000
   15     1.000000   180.000000     1.000000     0.000000     0.000000     0.250000     0.750000     0.500000
   16    -1.000000   180.000000     0.707107    -0.707107     0.000000     0.250000     0.750000     0.500000

 Subroutine IBZKPT returns following result:

 Found    159 irreducible k-points:

 Following reciprocal coordinates:
            Coordinates               Weight
  0.041667  0.041667  0.041667    128.000000
  0.125000  0.041667  0.041667    256.000000
  0.208333  0.041667  0.041667    256.000000
  0.291667  0.041667  0.041667    256.000000
  0.375000  0.041667  0.041667    256.000000
  0.458333  0.041667  0.041667    128.000000
 -0.041667  0.041667  0.041667     64.000000
  0.125000  0.125000  0.041667    128.000000
  0.208333  0.125000  0.041667    256.000000
  0.291667  0.125000  0.041667    256.000000
  0.375000  0.125000  0.041667    256.000000
  0.458333  0.125000  0.041667    256.000000
 -0.458333  0.125000  0.041667    256.000000
 -0.375000  0.125000  0.041667    256.000000
 -0.291667  0.125000  0.041667    256.000000
 -0.208333  0.125000  0.041667    128.000000
 -0.125000  0.125000  0.041667    128.000000
 -0.041667  0.125000  0.041667    128.000000
  0.208333  0.208333  0.041667    128.000000
  0.291667  0.208333  0.041667    256.000000
  0.375000  0.208333  0.041667    256.000000
  0.458333  0.208333  0.041667    256.000000
 -0.458333  0.208333  0.041667    256.000000
 -0.375000  0.208333  0.041667    256.000000
 -0.291667  0.208333  0.041667    128.000000
 -0.208333  0.208333  0.041667    128.000000
 -0.125000  0.208333  0.041667    256.000000
 -0.041667  0.208333  0.041667    128.000000
  0.291667  0.291667  0.041667    128.000000
  0.375000  0.291667  0.041667    256.000000
  0.458333  0.291667  0.041667    256.000000
 -0.458333  0.291667  0.041667    256.000000
 -0.375000  0.291667  0.041667    128.000000
 -0.291667  0.291667  0.041667    128.000000
 -0.208333  0.291667  0.041667    256.000000
 -0.125000  0.291667  0.041667    256.000000
 -0.041667  0.291667  0.041667    128.000000
  0.375000  0.375000  0.041667    128.000000
  0.458333  0.375000  0.041667    256.000000
 -0.458333  0.375000  0.041667    128.000000
 -0.375000  0.375000  0.041667    128.000000
 -0.291667  0.375000  0.041667    256.000000
 -0.208333  0.375000  0.041667    256.000000
 -0.125000  0.375000  0.041667    256.000000
 -0.041667  0.375000  0.041667    128.000000
  0.458333  0.458333  0.041667     64.000000
 -0.458333  0.458333  0.041667    128.000000
 -0.375000  0.458333  0.041667    256.000000
 -0.291667  0.458333  0.041667    256.000000
 -0.208333  0.458333  0.041667    256.000000
 -0.125000  0.458333  0.041667    256.000000
 -0.041667  0.458333  0.041667    128.000000
 -0.458333 -0.458333  0.041667    128.000000
 -0.375000 -0.458333  0.041667    256.000000
 -0.291667 -0.458333  0.041667    256.000000
 -0.208333 -0.458333  0.041667    256.000000
 -0.125000 -0.458333  0.041667    256.000000
 -0.041667 -0.458333  0.041667    128.000000
 -0.375000 -0.375000  0.041667    128.000000
 -0.291667 -0.375000  0.041667    256.000000
[...]
 -0.291667  0.458333  0.291667    128.000000
 -0.458333 -0.458333  0.291667    128.000000
 -0.375000 -0.458333  0.291667    256.000000
 -0.291667 -0.458333  0.291667    128.000000
 -0.375000 -0.375000  0.291667    128.000000
 -0.291667 -0.375000  0.291667    128.000000
 -0.291667 -0.291667  0.291667     32.000000
 -0.375000  0.375000  0.375000     64.000000
 -0.458333  0.458333  0.375000    128.000000
 -0.375000  0.458333  0.375000    128.000000
 -0.458333 -0.458333  0.375000    128.000000
 -0.375000 -0.458333  0.375000    128.000000
 -0.375000 -0.375000  0.375000     32.000000
 -0.458333  0.458333  0.458333     64.000000
 -0.458333 -0.458333  0.458333     32.000000

 Following cartesian coordinates:
            Coordinates               Weight
  0.017007  0.017007  0.032705    128.000000
  0.017007  0.034014  0.065411    256.000000
  0.017007  0.051020  0.098116    256.000000
  0.017007  0.068027  0.130822    256.000000
  0.017007  0.085034  0.163527    256.000000
  0.017007  0.102041  0.196232    128.000000
  0.017007 -0.000000  0.000000     64.000000
  0.034014  0.034014  0.098116    128.000000
  0.034014  0.051020  0.130822    256.000000
  0.034014  0.068027  0.163527    256.000000
  0.034014  0.085034  0.196232    256.000000
  0.034014  0.102041  0.228938    256.000000
  0.034014 -0.085034 -0.130822    256.000000
  0.034014 -0.068027 -0.098116    256.000000
  0.034014 -0.051020 -0.065411    256.000000
  0.034014 -0.034014 -0.032705    128.000000
  0.034014 -0.017007  0.000000    128.000000
  0.034014  0.000000  0.032705    128.000000
  0.051020  0.051020  0.163527    128.000000
  0.051020  0.068027  0.196232    256.000000
  0.051020  0.085034  0.228938    256.000000
  0.051020  0.102041  0.261643    256.000000
  0.051020 -0.085034 -0.098116    256.000000
  0.051020 -0.068027 -0.065411    256.000000
  0.051020 -0.051020 -0.032705    128.000000
  0.051020 -0.034014 -0.000000    128.000000
  0.051020 -0.017007  0.032705    256.000000
  0.051020  0.000000  0.065411    128.000000
  0.068027  0.068027  0.228938    128.000000
  0.068027  0.085034  0.261643    256.000000
  0.068027  0.102041  0.294349    256.000000
  0.068027 -0.085034 -0.065411    256.000000
  0.068027 -0.068027 -0.032705    128.000000
  0.068027 -0.051020 -0.000000    128.000000
  0.068027 -0.034014  0.032705    256.000000
  0.068027 -0.017007  0.065411    256.000000
  0.068027  0.000000  0.098116    128.000000
  0.085034  0.085034  0.294349    128.000000
  0.085034  0.102041  0.327054    256.000000
  0.085034 -0.085034 -0.032705    128.000000
  0.085034 -0.068027  0.000000    128.000000
  0.085034 -0.051020  0.032705    256.000000
  0.085034 -0.034014  0.065411    256.000000
  0.085034 -0.017007  0.098116    256.000000
  0.085034  0.000000  0.130822    128.000000
  0.102041  0.102041  0.359759     64.000000
  0.102041 -0.085034 -0.000000    128.000000
  0.102041 -0.068027  0.032705    256.000000
  0.102041 -0.051020  0.065411    256.000000
  0.102041 -0.034014  0.098116    256.000000
  0.102041 -0.017007  0.130822    256.000000
  0.102041  0.000000  0.163527    128.000000
 -0.085034 -0.085034 -0.359759    128.000000
 -0.085034 -0.068027 -0.327054    256.000000
 -0.085034 -0.051020 -0.294349    256.000000
 -0.085034 -0.034014 -0.261643    256.000000
 -0.085034 -0.017007 -0.228938    256.000000
 -0.085034 -0.000000 -0.196232    128.000000
 -0.068027 -0.068027 -0.294349    128.000000
 -0.068027 -0.051020 -0.261643    256.000000
[...]
  0.153061  0.000000  0.065411    128.000000
 -0.034014 -0.034014 -0.359759    128.000000
 -0.034014 -0.017007 -0.327054    256.000000
 -0.034014  0.000000 -0.294349    128.000000
 -0.017007 -0.017007 -0.294349    128.000000
 -0.017007  0.000000 -0.261643    128.000000
[...]
  -0.29166667  0.37500000  0.04166667       0.009
  -0.20833333  0.37500000  0.04166667       0.009
  -0.12500000  0.37500000  0.04166667       0.009
  -0.04166667  0.37500000  0.04166667       0.005
   0.45833333  0.45833333  0.04166667       0.002
  -0.45833333  0.45833333  0.04166667       0.005
  -0.37500000  0.45833333  0.04166667       0.009
  -0.29166667  0.45833333  0.04166667       0.009
  -0.20833333  0.45833333  0.04166667       0.009
  -0.12500000  0.45833333  0.04166667       0.009
  -0.04166667  0.45833333  0.04166667       0.005
  -0.45833333 -0.45833333  0.04166667       0.005
  -0.37500000 -0.45833333  0.04166667       0.009
  -0.29166667 -0.45833333  0.04166667       0.009
  -0.20833333 -0.45833333  0.04166667       0.009
  -0.12500000 -0.45833333  0.04166667       0.009
  -0.04166667 -0.45833333  0.04166667       0.005
  -0.37500000 -0.37500000  0.04166667       0.005
  -0.29166667 -0.37500000  0.04166667       0.009
[...]
  -0.29166667  0.45833333  0.29166667       0.005
  -0.45833333 -0.45833333  0.29166667       0.005
  -0.37500000 -0.45833333  0.29166667       0.009
  -0.29166667 -0.45833333  0.29166667       0.005
  -0.37500000 -0.37500000  0.29166667       0.005
  -0.29166667 -0.37500000  0.29166667       0.005
  -0.29166667 -0.29166667  0.29166667       0.001
  -0.37500000  0.37500000  0.37500000       0.002
  -0.45833333  0.45833333  0.37500000       0.005
  -0.37500000  0.45833333  0.37500000       0.005
  -0.45833333 -0.45833333  0.37500000       0.005
  -0.37500000 -0.45833333  0.37500000       0.005
  -0.37500000 -0.37500000  0.37500000       0.001
  -0.45833333  0.45833333  0.45833333       0.002
  -0.45833333 -0.45833333  0.45833333       0.001

 position of ions in fractional coordinates (direct lattice)
   0.25000000  0.75000000  0.50000000
   0.00000000  0.00000000  0.00000000

 position of ions in cartesian coordinates  (Angst):
   2.45000000  0.00000000  0.63700000
   0.00000000  0.00000000  0.00000000

 k-point  1 :   0.0417 0.0417 0.0417  plane waves:     130
 k-point  2 :   0.1250 0.0417 0.0417  plane waves:     131
 k-point  3 :   0.2083 0.0417 0.0417  plane waves:     129
 k-point  4 :   0.2917 0.0417 0.0417  plane waves:     131
 k-point  5 :   0.3750 0.0417 0.0417  plane waves:     126
 k-point  6 :   0.4583 0.0417 0.0417  plane waves:     124
 k-point  7 :  -0.0417 0.0417 0.0417  plane waves:     127
 k-point  8 :   0.1250 0.1250 0.0417  plane waves:     129
 k-point  9 :   0.2083 0.1250 0.0417  plane waves:     128
 k-point 10 :   0.2917 0.1250 0.0417  plane waves:     126
 k-point 11 :   0.3750 0.1250 0.0417  plane waves:     124
 k-point 12 :   0.4583 0.1250 0.0417  plane waves:     125
 k-point 13 :  -0.4583 0.1250 0.0417  plane waves:     130
 k-point 14 :  -0.3750 0.1250 0.0417  plane waves:     132
 k-point 15 :  -0.2917 0.1250 0.0417  plane waves:     129
 k-point 16 :  -0.2083 0.1250 0.0417  plane waves:     128
 k-point 17 :  -0.1250 0.1250 0.0417  plane waves:     129
 k-point 18 :  -0.0417 0.1250 0.0417  plane waves:     129
 k-point 19 :   0.2083 0.2083 0.0417  plane waves:     130
 k-point 20 :   0.2917 0.2083 0.0417  plane waves:     125
 k-point 21 :   0.3750 0.2083 0.0417  plane waves:     126
 k-point 22 :   0.4583 0.2083 0.0417  plane waves:     128
 k-point 23 :  -0.4583 0.2083 0.0417  plane waves:     128
 k-point 24 :  -0.3750 0.2083 0.0417  plane waves:     131
 k-point 25 :  -0.2917 0.2083 0.0417  plane waves:     128
 k-point 26 :  -0.2083 0.2083 0.0417  plane waves:     134
 k-point 27 :  -0.1250 0.2083 0.0417  plane waves:     132
 k-point 28 :  -0.0417 0.2083 0.0417  plane waves:     129
 k-point 29 :   0.2917 0.2917 0.0417  plane waves:     127
 k-point 30 :   0.3750 0.2917 0.0417  plane waves:     126
 k-point 31 :   0.4583 0.2917 0.0417  plane waves:     127
 k-point 32 :  -0.4583 0.2917 0.0417  plane waves:     130
 k-point 33 :  -0.3750 0.2917 0.0417  plane waves:     131
 k-point 34 :  -0.2917 0.2917 0.0417  plane waves:     132
 k-point 35 :  -0.2083 0.2917 0.0417  plane waves:     132
 k-point 36 :  -0.1250 0.2917 0.0417  plane waves:     130
 k-point 37 :  -0.0417 0.2917 0.0417  plane waves:     131
 k-point 38 :   0.3750 0.3750 0.0417  plane waves:     126
 k-point 39 :   0.4583 0.3750 0.0417  plane waves:     126
 k-point 40 :  -0.4583 0.3750 0.0417  plane waves:     129
 k-point 41 :  -0.3750 0.3750 0.0417  plane waves:     135
 k-point 42 :  -0.2917 0.3750 0.0417  plane waves:     129
 k-point 43 :  -0.2083 0.3750 0.0417  plane waves:     131
 k-point 44 :  -0.1250 0.3750 0.0417  plane waves:     129
 k-point 45 :  -0.0417 0.3750 0.0417  plane waves:     130
 k-point 46 :   0.4583 0.4583 0.0417  plane waves:     130
 k-point 47 :  -0.4583 0.4583 0.0417  plane waves:     133
 k-point 48 :  -0.3750 0.4583 0.0417  plane waves:     130
 k-point 49 :  -0.2917 0.4583 0.0417  plane waves:     129
 k-point 50 :  -0.2083 0.4583 0.0417  plane waves:     131
 k-point 51 :  -0.1250 0.4583 0.0417  plane waves:     129
 k-point 52 :  -0.0417 0.4583 0.0417  plane waves:     128
 k-point 53 :  -0.4583-0.4583 0.0417  plane waves:     130
 k-point 54 :  -0.3750-0.4583 0.0417  plane waves:     126
 k-point 55 :  -0.2917-0.4583 0.0417  plane waves:     126
 k-point 56 :  -0.2083-0.4583 0.0417  plane waves:     125
 k-point 57 :  -0.1250-0.4583 0.0417  plane waves:     126
 k-point 58 :  -0.0417-0.4583 0.0417  plane waves:     122
 k-point 59 :  -0.3750-0.3750 0.0417  plane waves:     124
 k-point 60 :  -0.2917-0.3750 0.0417  plane waves:     124
[...]
 k-point 85 :  -0.1250 0.2083 0.1250  plane waves:     129
 k-point 86 :   0.2917 0.2917 0.1250  plane waves:     126
 k-point 87 :   0.3750 0.2917 0.1250  plane waves:     128
 k-point 88 :   0.4583 0.2917 0.1250  plane waves:     130
 k-point 89 :  -0.2917 0.2917 0.1250  plane waves:     129
 k-point 90 :  -0.2083 0.2917 0.1250  plane waves:     131
 k-point 91 :  -0.1250 0.2917 0.1250  plane waves:     132
 k-point 92 :   0.3750 0.3750 0.1250  plane waves:     128
 k-point 93 :  -0.3750 0.3750 0.1250  plane waves:     126
 k-point 94 :  -0.2917 0.3750 0.1250  plane waves:     130
 k-point 95 :  -0.2083 0.3750 0.1250  plane waves:     127
 k-point 96 :  -0.1250 0.3750 0.1250  plane waves:     128
 k-point 97 :  -0.4583 0.4583 0.1250  plane waves:     129
 k-point 98 :  -0.3750 0.4583 0.1250  plane waves:     131
 k-point 99 :  -0.2917 0.4583 0.1250  plane waves:     127
 k-point ** :  -0.2083 0.4583 0.1250  plane waves:     129
 k-point ** :  -0.1250 0.4583 0.1250  plane waves:     128
 k-point ** :  -0.4583-0.4583 0.1250  plane waves:     130
 k-point ** :  -0.3750-0.4583 0.1250  plane waves:     128
 k-point ** :  -0.2917-0.4583 0.1250  plane waves:     128
 k-point ** :  -0.2083-0.4583 0.1250  plane waves:     123
 k-point ** :  -0.1250-0.4583 0.1250  plane waves:     126
 k-point ** :  -0.3750-0.3750 0.1250  plane waves:     127
 k-point ** :  -0.2917-0.3750 0.1250  plane waves:     121
 k-point ** :  -0.2083-0.3750 0.1250  plane waves:     123
 k-point ** :  -0.1250-0.3750 0.1250  plane waves:     120
 k-point ** :  -0.2917-0.2917 0.1250  plane waves:     121
 k-point ** :  -0.2083-0.2917 0.1250  plane waves:     119
 k-point ** :  -0.1250-0.2917 0.1250  plane waves:     119
 k-point ** :  -0.2083-0.2083 0.1250  plane waves:     122
 k-point ** :  -0.1250-0.2083 0.1250  plane waves:     126
 k-point ** :  -0.1250-0.1250 0.1250  plane waves:     131
 k-point ** :   0.2083 0.2083 0.2083  plane waves:     126
 k-point ** :   0.2917 0.2083 0.2083  plane waves:     130
 k-point ** :  -0.2083 0.2083 0.2083  plane waves:     125
 k-point ** :   0.2917 0.2917 0.2083  plane waves:     130
 k-point ** :  -0.2917 0.2917 0.2083  plane waves:     126
 k-point ** :  -0.2083 0.2917 0.2083  plane waves:     128
 k-point ** :  -0.3750 0.3750 0.2083  plane waves:     129
 k-point ** :  -0.2917 0.3750 0.2083  plane waves:     129
 k-point ** :  -0.2083 0.3750 0.2083  plane waves:     129
 k-point ** :  -0.4583 0.4583 0.2083  plane waves:     128
 k-point ** :  -0.3750 0.4583 0.2083  plane waves:     129
 k-point ** :  -0.2917 0.4583 0.2083  plane waves:     131
 k-point ** :  -0.2083 0.4583 0.2083  plane waves:     128
 k-point ** :  -0.4583-0.4583 0.2083  plane waves:     128
 k-point ** :  -0.3750-0.4583 0.2083  plane waves:     131
 k-point ** :  -0.2917-0.4583 0.2083  plane waves:     128
 k-point ** :  -0.2083-0.4583 0.2083  plane waves:     122
 k-point ** :  -0.3750-0.3750 0.2083  plane waves:     127
 k-point ** :  -0.2917-0.3750 0.2083  plane waves:     123
 k-point ** :  -0.2083-0.3750 0.2083  plane waves:     121
 k-point ** :  -0.2917-0.2917 0.2083  plane waves:     120
 k-point ** :  -0.2083-0.2917 0.2083  plane waves:     116
 k-point ** :  -0.2083-0.2083 0.2083  plane waves:     119
 k-point ** :  -0.2917 0.2917 0.2917  plane waves:     125
 k-point ** :  -0.3750 0.3750 0.2917  plane waves:     129
 k-point ** :  -0.2917 0.3750 0.2917  plane waves:     129
 k-point ** :  -0.4583 0.4583 0.2917  plane waves:     128
 k-point ** :  -0.3750 0.4583 0.2917  plane waves:     129
 k-point ** :  -0.2917 0.4583 0.2917  plane waves:     129
 k-point ** :  -0.4583-0.4583 0.2917  plane waves:     131
 k-point ** :  -0.3750-0.4583 0.2917  plane waves:     129
 k-point ** :  -0.2917-0.4583 0.2917  plane waves:     127
 k-point ** :  -0.3750-0.3750 0.2917  plane waves:     125
 k-point ** :  -0.2917-0.3750 0.2917  plane waves:     122
 k-point ** :  -0.2917-0.2917 0.2917  plane waves:     122
 k-point ** :  -0.3750 0.3750 0.3750  plane waves:     133
 k-point ** :  -0.4583 0.4583 0.3750  plane waves:     131
 k-point ** :  -0.3750 0.4583 0.3750  plane waves:     131
 k-point ** :  -0.4583-0.4583 0.3750  plane waves:     128
 k-point ** :  -0.3750-0.4583 0.3750  plane waves:     126
 k-point ** :  -0.3750-0.3750 0.3750  plane waves:     126
 k-point ** :  -0.4583 0.4583 0.4583  plane waves:     128
 k-point ** :  -0.4583-0.4583 0.4583  plane waves:     126

 maximum and minimum number of plane-waves per node :       135      116

 maximum number of plane-waves:       135
 maximum index in each direction:
   IXMAX=    4   IYMAX=    4   IZMAX=    3
   IXMIN=   -4   IYMIN=   -4   IZMIN=   -4

 serial   3D FFT for wavefunctions
 parallel 3D FFT for charge:
    minimum data exchange during FFTs selected (reduces bandwidth)

 Broyden mixing: mesh for mixing (old mesh)
   NGX =  7   NGY =  7   NGZ =  7
  (NGX  = 24   NGY  = 24   NGZ  = 24)
  gives a total of    343 points

 charge density for first step will be calculated from the start-wavefunctions

 Maximum index for augmentation-charges          241 (set IRDMAX)

 initial charge from wavefunction
 First call to EWALD:  gamma=   0.567
 Maximum number of real-space cells 4x 4x 3
 Maximum number of reciprocal cells 3x 3x 3

--------------------------------------- Iteration      1(   1)  ---------------------------------------

 eigenvalue-minimisations  :  1448
 total energy-change (2. order) :-0.1012233E+02  (-0.2642566E-06)
 number of electron       8.0000045 magnetization
 augmentation part       -0.4697139 magnetization

 Broyden mixing:
  rms(total) = 0.48879E-04    rms(broyden)= 0.47623E-04
  rms(prec ) = 0.11610E-03
  weight for this iteration     100.00

 Free energy of the ion-electron system (eV)
  alpha Z        PSCENC =         4.40202223
  Ewald energy   TEWEN  =      -265.18101312
  -Hartree energ DENC   =        -2.50793011
  -exchange      EXHF   =         0.00000000
  -V(xc)+E(xc)   XCENC  =       -17.53801394
  PAW double counting   =        72.34748493      -37.27330369
  entropy T*S    EENTRO =        -0.01388339
  eigenvalues    EBANDS =        29.55046630
  atomic energy  EATOM  =       206.09183643
  Solvation  Ediel_sol  =         0.00000000
  free energy    TOTEN  =       -10.12233436 eV

  energy without entropy =      -10.10845097  energy(sigma->0) =      -10.11539266

--------------------------------------- Iteration      1(   2)  ---------------------------------------

 eigenvalue-minimisations  :  1416
 total energy-change (2. order) :-0.2338379E-07  (-0.1266489E-07)
 number of electron       8.0000045 magnetization
 augmentation part       -0.4697139 magnetization

 Free energy of the ion-electron system (eV)
  alpha Z        PSCENC =         4.40202223
  Ewald energy   TEWEN  =      -265.18101312
  -Hartree energ DENC   =        -2.50803945
  -exchange      EXHF   =         0.00000000
  -V(xc)+E(xc)   XCENC  =       -17.53798026
  PAW double counting   =        72.34777245      -37.27358627
  entropy T*S    EENTRO =        -0.01388338
  eigenvalues    EBANDS =        29.55053698
  atomic energy  EATOM  =       206.09183643
  Solvation  Ediel_sol  =         0.00000000
  free energy    TOTEN  =       -10.12233438 eV

  energy without entropy =      -10.10845100  energy(sigma->0) =      -10.11539269

 average (electrostatic) potential at core
  the test charge radii are     0.9892
  (the norm of the test charge is              1.0000)
       1 -80.5608       2 -80.5608

 E-fermi :   9.1215     XC(G=0): -10.8937     alpha+bet :-15.6819

 k-point     1 :       0.0417    0.0417    0.0417
  band No.  band energies     occupation
      1      -4.3779      2.00000
      2       4.9749      2.00000
      3       6.5196      2.00000
      4       7.5246      2.00000
      5      11.3287      0.00000
      6      15.4873      0.00000
      7      16.5767      0.00000
      8      17.3504      0.00000

[...]

 k-point   159 :      -0.4583   -0.4583    0.4583
  band No.  band energies     occupation
      1       0.6145      2.00000
      2       0.6205      2.00000
      3       2.4397      2.00000
      4       2.4397      2.00000
      5      13.2990      0.00000
      6      19.5205      0.00000
      7      21.0798      0.00000
      8      21.0799      0.00000

 soft charge-density along one line, spin component           1
         0         1         2         3         4         5         6         7         8         9
 total charge-density along one line

------------------------ aborting loop because EDIFF is reached ----------------------------------------

  FORCE on cell =-STRESS in cart. coord.  units (eV):
  Direction    XX          YY          ZZ          XY          YZ          ZX
  Alpha Z     4.40202     4.40202     4.40202
  Ewald     -90.96023   -90.96023   -83.26083    -0.00000     0.00000     0.00000
  Hartree     0.55540     0.55540     1.39733     0.00000    -0.00000    -0.00000
  E(xc)     -25.42831   -25.42831   -25.38369     0.00012     0.00006     0.00006
  Local     -11.29204   -11.29204   -17.65161    -0.00004    -0.00012    -0.00012
  n-local    77.31518    77.41933    76.99661     1.09950    -0.45303    -0.52510
  augment   -11.98582   -11.98582   -11.91122     0.00008     0.00008     0.00008
  Kinetic    56.78473    57.07437    56.60628     3.38085    -1.95125    -3.47277
  Fock        0.00000     0.00000     0.00000     0.00000     0.00000     0.00000
  Total      -0.41216    -0.41216     1.19487    -0.00000     0.00000     0.00000
  in kB     -21.58794   -21.58794    62.58476    -0.00000     0.00000     0.00000

 VOLUME and BASIS-vectors are now :
  energy-cutoff  :      150.00
  volume of cell :       30.59
      direct lattice vectors                 reciprocal lattice vectors
    -2.450000000  2.450000000  1.274000000     0.000000000  0.204081633  0.392464678
     2.450000000 -2.450000000  1.274000000     0.204081633  0.000000000  0.392464678
     2.450000000  2.450000000 -1.274000000     0.204081633  0.204081633 -0.000000000

  length of vectors
     3.691622408  3.691622408  3.691622408     0.442354876  0.442354876  0.288615013

 FORCES acting on ions
    electron-ion (+dipol)            ewald-force                    non-local-force                 convergence-correction
   -.279E-04 0.279E-04 -.190E-14   0.198E-14 0.156E-15 0.342E-17   -.688E-16 0.977E-16 0.108E-16   0.753E-09 -.753E-09 -.110E-15
   0.279E-04 -.279E-04 -.321E-14   -.185E-14 0.943E-16 0.891E-15   0.577E-16 -.130E-15 0.980E-17   -.753E-09 0.753E-09 0.992E-16
   -.911E-14 -.983E-15 -.511E-14   0.139E-15 0.250E-15 0.894E-15   -.111E-16 -.319E-16 0.206E-16   0.684E-16 -.494E-16 -.113E-16

 POSITION                                       TOTAL-FORCE (eV/Angst)
      2.45000      0.00000      0.63700         0.000000      0.000000      0.000000
      0.00000      0.00000      0.00000        -0.000000     -0.000000     -0.000000
    total drift:                               -0.000000     -0.000000     -0.000000

  FREE ENERGIE OF THE ION-ELECTRON SYSTEM (eV)
  free  energy   TOTEN  =       -10.12233438 eV

  energy  without entropy=      -10.10845100  energy(sigma->0) =      -10.11539269

 reached required accuracy - stopping structural energy minimisation
 writing wavefunctions