 vasp.5.4.4.18Apr17-6-g9f103f2a35 (build Dec 09 2018 21:25:21) complex

 executed on IFC18.0.1.163_CrayMP date 2019.03.20  09:15:30

 INCAR:
 POTCAR:   PAW_PBE Si 05Jan2001

 POTCAR:   PAW_PBE Si 05Jan2001
   VRHFIN =Si: s2p2

   TITEL  = PAW_PBE Si 05Jan2001
   POMASS =   28.085; ZVAL   =    4.000    mass and valenz
   ENMAX  =  245.345; ENMIN  =  184.009 eV
   QCUT   =   -4.246; QGAM   =    8.493    optimization parameters

   Description
     l     E      TYP  RCUT    TYP  RCUT
     0   .000     23  1.900
     0   .000     23  1.900
     1   .000     23  1.900
     1   .000     23  1.900
     2   .000      7  1.900

 PAW_PBE Si 05Jan2001                   :

 POSCAR: Si2
  positions in direct lattice
 exchange correlation table for  LEXCH =        8
   RHO(1)=    0.500       N(1)  =     2000
   RHO(2)=  100.500       N(2)  =     4000

 ion  position               nearest neighbor table
   1  0.250  0.750  0.500-   2 2.53   2 2.53   2 2.53   2 2.53   2 3.11   2 3.11   2 3.11   2 3.11

   2  0.000  0.000  0.000-   1 2.53   1 2.53   1 2.53   1 2.53   1 3.11   1 3.11   1 3.11   1 3.11

  LATTYP: Found a body centered tetragonal cell.
 ALAT       =     4.9000000000
 C/A-ratio  =     0.5200000000

  Lattice vectors:

 A1 = (  -2.4500000000,   2.4500000000,   1.2740000000)
 A2 = (   2.4500000000,  -2.4500000000,   1.2740000000)
 A3 = (   2.4500000000,   2.4500000000,  -1.2740000000)

Analysis of symmetry for initial positions (statically):
 Subroutine PRICEL returns:
 Original cell was already a primitive cell.

 Routine SETGRP: Setting up the symmetry group for a
 body centered tetragonal supercell.

 Subroutine GETGRP returns: Found 16 space group operations
 (whereof  8 operations were pure point group operations)
 out of a pool of 16 trial point group operations.

The static configuration has the point symmetry D_2d.
 The point group associated with its full space group is D_4h.

Analysis of symmetry for dynamics (positions and initial velocities):
 Subroutine PRICEL returns:
 Original cell was already a primitive cell.

 Routine SETGRP: Setting up the symmetry group for a
 body centered tetragonal supercell.

 Subroutine GETGRP returns: Found 16 space group operations
 (whereof  8 operations were pure point group operations)
 out of a pool of 16 trial point group operations.

The dynamic configuration has the point symmetry D_2d.
 The point group associated with its full space group is D_4h.

 Subroutine INISYM returns: Found 16 space group operations
 (whereof  8 operations are pure point group operations),
 and found     1 'primitive' translations

 KPOINTS: Automatic kpoint scheme

Automatic generation of k-mesh.
Space group operators:
 irot       det(A)        alpha          n_x          n_y          n_z        tau_x        tau_y        tau_z
    1     1.000000     0.000000     1.000000     0.000000     0.000000     0.000000     0.000000     0.000000
    2    -1.000000    90.000000    -0.000000    -0.000000    -1.000000     0.000000     0.000000     0.000000
    3     1.000000   180.000000    -0.000000    -0.000000    -1.000000     0.000000     0.000000     0.000000
    4    -1.000000    90.000000    -0.000000     0.000000     1.000000     0.000000     0.000000     0.000000
    5    -1.000000   180.000000     0.000000    -1.000000     0.000000     0.000000     0.000000     0.000000
    6     1.000000   180.000000     0.707107     0.707107    -0.000000     0.000000     0.000000     0.000000
    7    -1.000000   180.000000     1.000000     0.000000     0.000000     0.000000     0.000000     0.000000
    8     1.000000   180.000000     0.707107    -0.707107     0.000000     0.000000     0.000000     0.000000
    9    -1.000000     0.000000     1.000000     0.000000     0.000000     0.250000     0.750000     0.500000
   10     1.000000    90.000000    -0.000000    -0.000000    -1.000000     0.250000     0.750000     0.500000
   11    -1.000000   180.000000    -0.000000    -0.000000    -1.000000     0.250000     0.750000     0.500000
   12     1.000000    90.000000    -0.000000     0.000000     1.000000     0.250000     0.750000     0.500000
   13     1.000000   180.000000     0.000000    -1.000000     0.000000     0.250000     0.750000     0.500000
   14    -1.000000   180.000000     0.707107     0.707107    -0.000000     0.250000     0.750000     0.500000
   15     1.000000   180.000000     1.000000     0.000000     0.000000     0.250000     0.750000     0.500000
   16    -1.000000   180.000000     0.707107    -0.707107     0.000000     0.250000     0.750000     0.500000

 Subroutine IBZKPT returns following result:

 Found     40 irreducible k-points:

 Following reciprocal coordinates:
            Coordinates               Weight
  0.000000  0.000000  0.000000      1.000000
  0.142857 -0.000000  0.000000      8.000000
  0.285714 -0.000000  0.000000      8.000000
  0.428571 -0.000000  0.000000      8.000000
  0.142857  0.142857  0.000000      8.000000
  0.285714  0.142857  0.000000     16.000000
  0.428571  0.142857  0.000000     16.000000
 -0.428571  0.142857 -0.000000     16.000000
 -0.285714  0.142857 -0.000000     16.000000
 -0.142857  0.142857 -0.000000      4.000000
  0.285714  0.285714  0.000000      8.000000
  0.428571  0.285714  0.000000     16.000000
 -0.428571  0.285714 -0.000000     16.000000
 -0.285714  0.285714 -0.000000      4.000000
  0.428571  0.428571  0.000000      8.000000
 -0.428571  0.428571  0.000000      4.000000
  0.142857  0.142857  0.142857      8.000000
  0.285714  0.142857  0.142857     16.000000
 -0.142857  0.142857  0.142857      4.000000
  0.285714  0.285714  0.142857      8.000000
  0.428571  0.285714  0.142857      8.000000
 -0.285714  0.285714  0.142857      8.000000
 -0.142857  0.285714  0.142857      8.000000
 -0.428571  0.428571  0.142857      8.000000
 -0.285714  0.428571  0.142857     16.000000
 -0.142857  0.428571  0.142857      8.000000
 -0.428571 -0.428571  0.142857      8.000000
 -0.285714 -0.428571  0.142857     16.000000
 -0.142857 -0.428571  0.142857      8.000000
 -0.285714 -0.285714  0.142857      8.000000
 -0.142857 -0.285714  0.142857      8.000000
 -0.142857 -0.142857  0.142857      2.000000
 -0.285714  0.285714  0.285714      4.000000
 -0.428571  0.428571  0.285714      8.000000
 -0.285714  0.428571  0.285714      8.000000
 -0.428571 -0.428571  0.285714      8.000000
 -0.285714 -0.428571  0.285714      8.000000
 -0.285714 -0.285714  0.285714      2.000000
 -0.428571  0.428571  0.428571      4.000000
 -0.428571 -0.428571  0.428571      2.000000

 Following cartesian coordinates:
            Coordinates               Weight
  0.000000  0.000000  0.000000      1.000000
  0.000000  0.029155  0.056066      8.000000
  0.000000  0.058309  0.112133      8.000000
  0.000000  0.087464  0.168199      8.000000
  0.029155  0.029155  0.112133      8.000000
  0.029155  0.058309  0.168199     16.000000
  0.029155  0.087464  0.224266     16.000000
  0.029155 -0.087464 -0.112133     16.000000
  0.029155 -0.058309 -0.056066     16.000000
  0.029155 -0.029155  0.000000      4.000000
  0.058309  0.058309  0.224266      8.000000
  0.058309  0.087464  0.280332     16.000000
  0.058309 -0.087464 -0.056066     16.000000
  0.058309 -0.058309  0.000000      4.000000
  0.087464  0.087464  0.336398      8.000000
  0.087464 -0.087464  0.000000      4.000000
  0.058309  0.058309  0.112133      8.000000
  0.058309  0.087464  0.168199     16.000000
  0.058309 -0.000000 -0.000000      4.000000
  0.087464  0.087464  0.224266      8.000000
  0.087464  0.116618  0.280332      8.000000
  0.087464 -0.029155 -0.000000      8.000000
  0.087464  0.000000  0.056066      8.000000
  0.116618 -0.058309  0.000000      8.000000
  0.116618 -0.029155  0.056066     16.000000
  0.116618  0.000000  0.112133      8.000000
 -0.058309 -0.058309 -0.336398      8.000000
 -0.058309 -0.029155 -0.280332     16.000000
 -0.058309  0.000000 -0.224266      8.000000
 -0.029155 -0.029155 -0.224266      8.000000
 -0.029155 -0.000000 -0.168199      8.000000
  0.000000  0.000000 -0.112133      2.000000
  0.116618  0.000000 -0.000000      4.000000
  0.145773 -0.029155  0.000000      8.000000
  0.145773  0.000000  0.056066      8.000000
 -0.029155 -0.029155 -0.336398      8.000000
 -0.029155  0.000000 -0.280332      8.000000
  0.000000  0.000000 -0.224266      2.000000
  0.174927 -0.000000  0.000000      4.000000
 -0.000000  0.000000 -0.336398      2.000000

 SYSTEM =  unknown system
 POSCAR =  Si2

 Startparameter for this run:
   NWRITE =      2    write-flag & timer
   PREC   = normal    normal or accurate (medium, high low for compatibility)
   ISTART =      0    job   : 0-new  1-cont  2-samecut
   ICHARG =      2    charge: 1-file 2-atom 10-const
   ISPIN  =      1    spin polarized calculation?
   LNONCOLLINEAR =      F non collinear calculations
   LSORBIT =      F    spin-orbit coupling
   INIWAV =      1    electr: 0-lowe 1-rand  2-diag
   LASPH  =      F    aspherical Exc in radial PAW
   METAGGA=      F    non-selfconsistent MetaGGA calc.

 Electronic Relaxation 1
   ENCUT  =  200.0 eV  14.70 Ry    3.83 a.u.   4.26  4.26  4.26*2*pi/ulx,y,z
   ENINI  =  200.0     initial cutoff
   ENAUG  =  322.1 eV  augmentation charge cutoff
   NELM   =     60;   NELMIN=  2; NELMDL= -5     # of ELM steps
   EDIFF  = 0.4E-03   stopping-criterion for ELM
   LREAL  =      F    real-space projection
   NLSPLINE    = F    spline interpolate recip. space projectors
   LCOMPAT=      F    compatible to vasp.4.4
   GGA_COMPAT  = T    GGA compatible to vasp.4.4-vasp.4.6
   LMAXPAW     = -100 max onsite density
   LMAXMIX     =    2 max onsite mixed and CHGCAR
   VOSKOWN=      0    Vosko Wilk Nusair interpolation
   ROPT   =    0.00000
 Ionic relaxation
   EDIFFG = -.1E-01   stopping-criterion for IOM
   NSW    =     15    number of steps for IOM
   NBLOCK =      1;   KBLOCK =     15    inner block; outer block
   IBRION =      2    ionic relax: 0-MD 1-quasi-New 2-CG
   NFREE  =      1    steps in history (QN), initial steepest desc. (CG)
   ISIF   =      3    stress and relaxation
   IWAVPR =     11    prediction:  0-non 1-charg 2-wave 3-comb
   ISYM   =      2    0-nonsym 1-usesym 2-fastsym
   LCORR  =      T    Harris-Foulkes like correction to forces

   POTIM  = 0.5000    time-step for ionic-motion
   TEIN   =    0.0    initial temperature
   TEBEG  =    0.0;   TEEND  =   0.0 temperature during run
   SMASS  =  -3.00    Nose mass-parameter (am)
   estimated Nose-frequenzy (Omega)   =  0.10E-29 period in steps =****** mass=  -0.311E-27a.u.
   SCALEE = 1.0000    scale energy and forces
   NPACO  =    256;   APACO  = 16.0  distance and # of slots for P.C.
   PSTRESS=    0.0 pullay stress

  Mass of Ions in am
   POMASS =  28.09
  Ionic Valenz
   ZVAL   =   4.00
  Atomic Wigner-Seitz radii
  virtual crystal weights
   VCA    =   1.00
   NELECT =       8.0000    total number of electrons
   NUPDOWN=      -1.0000    fix difference up-down

 DOS related values:
   EMIN   =  10.00;   EMAX   =-10.00  energy-range for DOS
   EFERMI =   0.00
   ISMEAR =     0;   SIGMA  =   0.20  broadening in eV -4-tet -1-fermi 0-gaus

 Electronic relaxation 2 (details)
   IALGO  =     38    algorithm
[...]
   0.00000000  0.00000000  0.00000000       0.003
   0.14285714 -0.00000000  0.00000000       0.023
   0.28571429 -0.00000000  0.00000000       0.023
   0.42857143 -0.00000000  0.00000000       0.023
   0.14285714  0.14285714  0.00000000       0.023
   0.28571429  0.14285714  0.00000000       0.047
   0.42857143  0.14285714  0.00000000       0.047
  -0.42857143  0.14285714 -0.00000000       0.047
  -0.28571429  0.14285714 -0.00000000       0.047
  -0.14285714  0.14285714 -0.00000000       0.012
   0.28571429  0.28571429  0.00000000       0.023
   0.42857143  0.28571429  0.00000000       0.047
  -0.42857143  0.28571429 -0.00000000       0.047
  -0.28571429  0.28571429 -0.00000000       0.012
   0.42857143  0.42857143  0.00000000       0.023
  -0.42857143  0.42857143  0.00000000       0.012
   0.14285714  0.14285714  0.14285714       0.023
   0.28571429  0.14285714  0.14285714       0.047
  -0.14285714  0.14285714  0.14285714       0.012
   0.28571429  0.28571429  0.14285714       0.023
   0.42857143  0.28571429  0.14285714       0.023
  -0.28571429  0.28571429  0.14285714       0.023
  -0.14285714  0.28571429  0.14285714       0.023
  -0.42857143  0.42857143  0.14285714       0.023
  -0.28571429  0.42857143  0.14285714       0.047
  -0.14285714  0.42857143  0.14285714       0.023
  -0.42857143 -0.42857143  0.14285714       0.023
  -0.28571429 -0.42857143  0.14285714       0.047
  -0.14285714 -0.42857143  0.14285714       0.023
  -0.28571429 -0.28571429  0.14285714       0.023
  -0.14285714 -0.28571429  0.14285714       0.023
  -0.14285714 -0.14285714  0.14285714       0.006
  -0.28571429  0.28571429  0.28571429       0.012
  -0.42857143  0.42857143  0.28571429       0.023
  -0.28571429  0.42857143  0.28571429       0.023
  -0.42857143 -0.42857143  0.28571429       0.023
  -0.28571429 -0.42857143  0.28571429       0.023
  -0.28571429 -0.28571429  0.28571429       0.006
  -0.42857143  0.42857143  0.42857143       0.012
  -0.42857143 -0.42857143  0.42857143       0.006

 position of ions in fractional coordinates (direct lattice)
   0.25000000  0.75000000  0.50000000
   0.00000000  0.00000000  0.00000000

 position of ions in cartesian coordinates  (Angst):
   2.45000000  0.00000000  0.63700000
   0.00000000  0.00000000  0.00000000

 k-point  1 :   0.0000 0.0000 0.0000  plane waves:     183
 k-point  2 :   0.1429-0.0000 0.0000  plane waves:     196
 k-point  3 :   0.2857-0.0000 0.0000  plane waves:     198
 k-point  4 :   0.4286-0.0000 0.0000  plane waves:     202
 k-point  5 :   0.1429 0.1429 0.0000  plane waves:     198
 k-point  6 :   0.2857 0.1429 0.0000  plane waves:     201
 k-point  7 :   0.4286 0.1429 0.0000  plane waves:     201
 k-point  8 :  -0.4286 0.1429-0.0000  plane waves:     200
 k-point  9 :  -0.2857 0.1429-0.0000  plane waves:     198
 k-point 10 :  -0.1429 0.1429-0.0000  plane waves:     192
 k-point 11 :   0.2857 0.2857 0.0000  plane waves:     199
 k-point 12 :   0.4286 0.2857 0.0000  plane waves:     198
 k-point 13 :  -0.4286 0.2857-0.0000  plane waves:     195
 k-point 14 :  -0.2857 0.2857-0.0000  plane waves:     192
 k-point 15 :   0.4286 0.4286 0.0000  plane waves:     192
 k-point 16 :  -0.4286 0.4286 0.0000  plane waves:     190
 k-point 17 :   0.1429 0.1429 0.1429  plane waves:     199
 k-point 18 :   0.2857 0.1429 0.1429  plane waves:     203
 k-point 19 :  -0.1429 0.1429 0.1429  plane waves:     197
 k-point 20 :   0.2857 0.2857 0.1429  plane waves:     195
 k-point 21 :   0.4286 0.2857 0.1429  plane waves:     195
 k-point 22 :  -0.2857 0.2857 0.1429  plane waves:     191
 k-point 23 :  -0.1429 0.2857 0.1429  plane waves:     195
 k-point 24 :  -0.4286 0.4286 0.1429  plane waves:     190
 k-point 25 :  -0.2857 0.4286 0.1429  plane waves:     192
 k-point 26 :  -0.1429 0.4286 0.1429  plane waves:     199
 k-point 27 :  -0.4286-0.4286 0.1429  plane waves:     191
 k-point 28 :  -0.2857-0.4286 0.1429  plane waves:     196
 k-point 29 :  -0.1429-0.4286 0.1429  plane waves:     195
 k-point 30 :  -0.2857-0.2857 0.1429  plane waves:     195
 k-point 31 :  -0.1429-0.2857 0.1429  plane waves:     202
 k-point 32 :  -0.1429-0.1429 0.1429  plane waves:     203
 k-point 33 :  -0.2857 0.2857 0.2857  plane waves:     192
 k-point 34 :  -0.4286 0.4286 0.2857  plane waves:     193
 k-point 35 :  -0.2857 0.4286 0.2857  plane waves:     197
 k-point 36 :  -0.4286-0.4286 0.2857  plane waves:     196
 k-point 37 :  -0.2857-0.4286 0.2857  plane waves:     199
 k-point 38 :  -0.2857-0.2857 0.2857  plane waves:     191
 k-point 39 :  -0.4286 0.4286 0.4286  plane waves:     198
 k-point 40 :  -0.4286-0.4286 0.4286  plane waves:     199

 maximum and minimum number of plane-waves per node :       203      183

 maximum number of plane-waves:       203
 maximum index in each direction:
   IXMAX=    4   IYMAX=    4   IZMAX=    4
   IXMIN=   -4   IYMIN=   -4   IZMIN=   -4

 serial   3D FFT for wavefunctions
 parallel 3D FFT for charge:
    minimum data exchange during FFTs selected (reduces bandwidth)

 Broyden mixing: mesh for mixing (old mesh)
   NGX =  9   NGY =  9   NGZ =  9
  (NGX  = 28   NGY  = 28   NGZ  = 28)
  gives a total of    729 points

 initial charge density was supplied:
 charge density of overlapping atoms calculated
 number of electron       8.0000000 magnetization
 keeping initial charge density in first step

 Maximum index for augmentation-charges          442 (set IRDMAX)

 First call to EWALD:  gamma=   0.567
 Maximum number of real-space cells 4x 4x 3
 Maximum number of reciprocal cells 3x 3x 3

--------------------------------------- Iteration      1(   1)  ---------------------------------------

 eigenvalue-minimisations  :   648
 total energy-change (2. order) :-0.2758068E+01  (-0.2058843E+03)
 number of electron       8.0000000 magnetization
 augmentation part        8.0000000 magnetization

 Free energy of the ion-electron system (eV)
  alpha Z        PSCENC =         4.40202223
  Ewald energy   TEWEN  =      -265.18101312
  -Hartree energ DENC   =        -2.30415367
  -exchange      EXHF   =         0.00000000
  -V(xc)+E(xc)   XCENC  =       -17.81545108
  PAW double counting   =        65.95520812      -30.76852678
  entropy T*S    EENTRO =        -0.01661193
  eigenvalues    EBANDS =        36.85798547
  atomic energy  EATOM  =       206.11247263
  Solvation  Ediel_sol  =         0.00000000
  free energy    TOTEN  =        -2.75806813 eV

  energy without entropy =       -2.74145620  energy(sigma->0) =       -2.74976216

[...]

 Broyden mixing:
  rms(total) = 0.14879E+00    rms(broyden)= 0.14877E+00
  rms(prec ) = 0.33365E+00
  weight for this iteration     100.00

[...]

 eigenvalue-minimisations  :   800
 total energy-change (2. order) : 0.6132389E-02  (-0.1731276E-03)
 number of electron       7.9999993 magnetization
 augmentation part       -0.4699929 magnetization

[...]

 eigenvalues of (default mixing * dielectric matrix)
  average eigenvalue GAMMA=   2.6671
  2.6671

[...]

 average (electrostatic) potential at core
  the test charge radii are     0.9892
  (the norm of the test charge is              1.0000)
       1 -80.5454       2 -80.5454

 E-fermi :   9.0094     XC(G=0): -10.8929     alpha+bet :-15.6819

 k-point     1 :       0.0000    0.0000    0.0000
  band No.  band energies     occupation
      1      -4.6139      2.00000
      2       6.2035      2.00000
      3       6.3027      2.00000
      4       6.3027      2.00000
      5      10.5991      0.00000
      6      16.9498      0.00000
      7      17.3766      0.00000
      8      17.3766      0.00000

[...]

 soft charge-density along one line, spin component           1
         0         1         2         3         4         5         6         7         8         9
 total charge-density along one line

------------------------ aborting loop because EDIFF is reached ----------------------------------------

  FORCE on cell =-STRESS in cart. coord.  units (eV):
  Direction    XX          YY          ZZ          XY          YZ          ZX
  Alpha Z     4.40202     4.40202     4.40202
  Ewald     -90.96023   -90.96023   -83.26083    -0.00000     0.00000     0.00000
  Hartree     0.55044     0.55044     1.40532     0.00000     0.00000     0.00000
  E(xc)     -25.44447   -25.44447   -25.39414     0.00003     0.00001     0.00001
  Local     -11.29988   -11.29988   -17.71735    -0.00005    -0.00005    -0.00005
  n-local    77.34836    77.31989    76.80517     0.92758    -0.23722    -0.46241
  augment   -12.03956   -12.03956   -12.01608     0.00005     0.00005     0.00005
  Kinetic    60.59587    52.86792    57.49083     3.79714    -1.25068    -3.56789
  Fock        0.00000     0.00000     0.00000     0.00000     0.00000     0.00000
  Total      -0.72565    -0.72565     1.71493    -0.00000     0.00000    -0.00000
  in kB     -38.00806   -38.00806    89.82480    -0.00000     0.00000    -0.00000

 VOLUME and BASIS-vectors are now :
  energy-cutoff  :      200.00
  volume of cell :       30.59
      direct lattice vectors                 reciprocal lattice vectors
    -2.450000000  2.450000000  1.274000000     0.000000000  0.204081633  0.392464678
     2.450000000 -2.450000000  1.274000000     0.204081633  0.000000000  0.392464678
     2.450000000  2.450000000 -1.274000000     0.204081633  0.204081633 -0.000000000

[...]

 FORCES acting on ions
    electron-ion (+dipol)            ewald-force                    non-local-force                 convergence-correction
   0.135E-05 -.135E-05 -.662E-14   0.198E-14 0.156E-15 0.342E-17   -.208E-16 0.226E-16 -.134E-17   -.447E-07 0.447E-07 -.264E-15
   -.135E-05 0.135E-05 0.471E-14   -.185E-14 0.943E-16 0.891E-15   0.300E-16 -.307E-16 -.383E-17   0.447E-07 -.447E-07 -.676E-16
   -.124E-13 0.125E-13 -.192E-14   0.139E-15 0.250E-15 0.894E-15   0.919E-17 -.815E-17 -.516E-17   -.161E-15 -.281E-15 -.331E-15

 POSITION                                       TOTAL-FORCE (eV/Angst)
      2.45000      0.00000      0.63700        -0.000000     -0.000000      0.000000
      0.00000      0.00000      0.00000         0.000000      0.000000     -0.000000
    total drift:                               -0.000000      0.000000     -0.000000

  FREE ENERGIE OF THE ION-ELECTRON SYSTEM (eV)
  free  energy   TOTEN  =       -10.21296836 eV

  energy  without entropy=      -10.19685015  energy(sigma->0) =      -10.20490926

[...]

 eigenvalues of (default mixing * dielectric matrix)
  average eigenvalue GAMMA=   1.3230
  2.2265  0.4196

[...]

 d Force = 0.0000000E+00[ 0.000E+00, 0.000E+00]  d Energy = 0.4424046E-01-0.442E-01
 d Force = 0.0000000E+00[ 0.000E+00, 0.000E+00]  d Ewald  =-0.3517830E+00 0.352E+00

 Steepest descent step on ions:
 trial-energy change:   -0.044240  1 .order   -0.042964   -0.096344    0.010417
  (g-gl).g = 0.963E-01      g.g   = 0.963E-01  gl.gl    = 0.000E+00
 g(Force)  = 0.442E-46   g(Stress)= 0.963E-01 ortho     = 0.000E+00
 gamma     =   0.00000
 trial     =   1.00000
 opt step  =   0.90243  (harmonic =   0.90243) maximal distance =0.00000000
 next E    =   -10.256440   (d E  =  -0.04347)

[...]

 d Force = 0.0000000E+00[ 0.000E+00, 0.000E+00]  d Energy = 0.4864389E-03-0.486E-03
 d Force = 0.0000000E+00[ 0.000E+00, 0.000E+00]  d Ewald  = 0.4163387E-01-0.416E-01

[...]

 d Force = 0.0000000E+00[ 0.000E+00, 0.000E+00]  d Energy =-0.2265062E-03 0.227E-03
 d Force = 0.0000000E+00[ 0.000E+00, 0.000E+00]  d Ewald  = 0.1489840E-01-0.149E-01

[...]

 Broyden mixing:
  rms(total) = 0.76670E-05    rms(broyden)= 0.72324E-05
  rms(prec ) = 0.22214E-04
  weight for this iteration     100.00

[...]

 Broyden mixing:
  rms(total) = 0.44163E-05    rms(broyden)= 0.36114E-05
  rms(prec ) = 0.11091E-04
  weight for this iteration     100.00
  WARNING: grid for Broyden might be to small

[...]

 eigenvalue-minimisations  :   320
 total energy-change (2. order) :-0.2053650E-07  (-0.6536661E-10)
 number of electron       7.9999985 magnetization
 augmentation part       -0.4723411 magnetization

 Broyden mixing:
  rms(total) = 0.31165E-05    rms(broyden)= 0.18041E-05
  rms(prec ) = 0.55407E-05
  weight for this iteration     100.00
  WARNING: grid for Broyden might be to small

[...]

--------------------------------------- Iteration     15(   2)  ---------------------------------------

 eigenvalue-minimisations  :   320
 total energy-change (2. order) : 0.1628564E-10  (-0.2538205E-11)
 number of electron       7.9999985 magnetization
 augmentation part       -0.4723411 magnetization

 Free energy of the ion-electron system (eV)
  alpha Z        PSCENC =         4.38091426
  Ewald energy   TEWEN  =      -264.87087222
  -Hartree energ DENC   =        -2.48040067
  -exchange      EXHF   =         0.00000000
  -V(xc)+E(xc)   XCENC  =       -17.58948742
  PAW double counting   =        71.42908344      -36.35237217
  entropy T*S    EENTRO =        -0.01066600
  eigenvalues    EBANDS =        29.12377256
  atomic energy  EATOM  =       206.11247263
  Solvation  Ediel_sol  =         0.00000000
  free energy    TOTEN  =       -10.25755560 eV

  energy without entropy =      -10.24688960  energy(sigma->0) =      -10.25222260

 average (electrostatic) potential at core
  the test charge radii are     0.9892
  (the norm of the test charge is              1.0000)
       1 -80.5994       2 -80.5994

 E-fermi :   8.9647     XC(G=0): -10.8747     alpha+bet :-15.6067

[...]

 k-point    40 :      -0.4286   -0.4286    0.4286
  band No.  band energies     occupation
      1       1.1340      2.00000
      2       1.1711      2.00000
      3       2.7272      2.00000
      4       2.7272      2.00000
      5      10.1664      0.00000
      6      19.0878      0.00000
      7      20.5502      0.00000
      8      20.5502      0.00000

 soft charge-density along one line, spin component           1
         0         1         2         3         4         5         6         7         8         9
 total charge-density along one line

------------------------ aborting loop because EDIFF is reached ----------------------------------------

  FORCE on cell =-STRESS in cart. coord.  units (eV):
  Direction    XX          YY          ZZ          XY          YZ          ZX
  Alpha Z     4.38091     4.38091     4.38091
  Ewald     -87.95206   -87.95206   -88.96697    -0.00000     0.00000    -0.00000
  Hartree     0.75685     0.75685     0.96671     0.00000     0.00000     0.00000
  E(xc)     -25.44181   -25.44181   -25.31534     0.00003     0.00001     0.00001
  Local     -14.40074   -14.40074   -11.60563    -0.00005    -0.00005    -0.00005
  n-local    77.84539    77.85700    75.66887     1.03661    -0.28363    -0.50385
  augment   -12.08869   -12.08869   -11.89013     0.00004     0.00005     0.00005
  Kinetic    60.50938    53.21531    56.75948     3.76797    -0.90174    -3.13793
  Fock        0.00000     0.00000     0.00000     0.00000     0.00000     0.00000
  Total      -0.03201    -0.03201    -0.00210     0.00000     0.00000    -0.00000
  in kB      -1.66840    -1.66840    -0.10964     0.00000     0.00000    -0.00000

 VOLUME and BASIS-vectors are now :
  energy-cutoff  :      200.00
  volume of cell :       30.74
      direct lattice vectors                 reciprocal lattice vectors
    -2.411301112  2.411301112  1.321557862    -0.000000000  0.207356932  0.378341361
     2.411301112 -2.411301112  1.321557862     0.207356932 -0.000000000  0.378341361
     2.411301112  2.411301112 -1.321557862     0.207356932  0.207356932  0.000000000

  length of vectors
     3.657220432  3.657220432  3.657220432     0.431438388  0.431438388  0.293246985

 FORCES acting on ions
    electron-ion (+dipol)            ewald-force                    non-local-force                 convergence-correction
   0.111E-05 -.111E-05 0.111E-13   0.295E-15 0.102E-14 0.143E-15   -.193E-18 -.106E-16 0.284E-18   0.260E-10 -.260E-10 -.168E-15
   -.111E-05 0.111E-05 -.706E-14   -.298E-15 -.804E-15 -.136E-15   -.730E-17 0.170E-16 -.245E-18   -.260E-10 0.260E-10 0.955E-16
   -.191E-13 0.114E-13 0.403E-14   -.350E-17 0.219E-15 0.688E-17   -.750E-17 0.638E-17 0.384E-19   -.108E-15 -.192E-15 -.723E-16

 POSITION                                       TOTAL-FORCE (eV/Angst)
      2.41130      0.00000      0.66078        -0.000000      0.000000      0.000000
      0.00000      0.00000     -0.00000         0.000000     -0.000000     -0.000000
    total drift:                               -0.000000      0.000000      0.000000

  FREE ENERGIE OF THE ION-ELECTRON SYSTEM (eV)
  free  energy   TOTEN  =       -10.25755560 eV

  energy  without entropy=      -10.24688960  energy(sigma->0) =      -10.25222260

 d Force = 0.0000000E+00[ 0.000E+00, 0.000E+00]  d Energy = 0.2026346E-07-0.203E-07
 d Force = 0.0000000E+00[ 0.000E+00, 0.000E+00]  d Ewald  =-0.8262393E-05 0.826E-05

 writing wavefunctions