 vasp.5.4.4.18Apr17-6-g9f103f2a35 (build Dec 09 2018 21:25:21) complex

 executed on IFC18.0.1.163_CrayMP date 2019.03.20  09:22:48

 INCAR:
 POTCAR:   PAW_PBE Si 05Jan2001

 POTCAR:   PAW_PBE Si 05Jan2001
   VRHFIN =Si: s2p2

   TITEL  = PAW_PBE Si 05Jan2001
   POMASS =   28.085; ZVAL   =    4.000    mass and valenz
   ENMAX  =  245.345; ENMIN  =  184.009 eV
   QCUT   =   -4.246; QGAM   =    8.493    optimization parameters

   Description
     l     E      TYP  RCUT    TYP  RCUT
     0   .000     23  1.900
     0   .000     23  1.900
     1   .000     23  1.900
     1   .000     23  1.900
     2   .000      7  1.900

 PAW_PBE Si 05Jan2001                   :

 POSCAR: Si2
  positions in direct lattice
 exchange correlation table for  LEXCH =        8
   RHO(1)=    0.500       N(1)  =     2000
   RHO(2)=  100.500       N(2)  =     4000

 ion  position               nearest neighbor table
   1  0.250  0.750  0.500-   2 2.53   2 2.53   2 2.53   2 2.53   2 3.11   2 3.11   2 3.11   2 3.11

   2  0.000  0.000  0.000-   1 2.53   1 2.53   1 2.53   1 2.53   1 3.11   1 3.11   1 3.11   1 3.11

  LATTYP: Found a body centered tetragonal cell.
 ALAT       =     4.9000000000
 C/A-ratio  =     0.5200000000

  Lattice vectors:

 A1 = (  -2.4500000000,   2.4500000000,   1.2740000000)
 A2 = (   2.4500000000,  -2.4500000000,   1.2740000000)
 A3 = (   2.4500000000,   2.4500000000,  -1.2740000000)

Analysis of symmetry for initial positions (statically):
 Subroutine PRICEL returns:
 Original cell was already a primitive cell.

 Routine SETGRP: Setting up the symmetry group for a
 body centered tetragonal supercell.

 Subroutine GETGRP returns: Found 16 space group operations
 (whereof  8 operations were pure point group operations)
 out of a pool of 16 trial point group operations.

The static configuration has the point symmetry D_2d.
 The point group associated with its full space group is D_4h.

Analysis of symmetry for dynamics (positions and initial velocities):
 Subroutine PRICEL returns:
 Original cell was already a primitive cell.

 Routine SETGRP: Setting up the symmetry group for a
 body centered tetragonal supercell.

 Subroutine GETGRP returns: Found 16 space group operations
 (whereof  8 operations were pure point group operations)
 out of a pool of 16 trial point group operations.

The dynamic configuration has the point symmetry D_2d.
 The point group associated with its full space group is D_4h.

 Subroutine INISYM returns: Found 16 space group operations
 (whereof  8 operations are pure point group operations),
 and found     1 'primitive' translations

 KPOINTS: Automatic kpoint scheme

Automatic generation of k-mesh.
Space group operators:
 irot       det(A)        alpha          n_x          n_y          n_z        tau_x        tau_y        tau_z
    1     1.000000     0.000000     1.000000     0.000000     0.000000     0.000000     0.000000     0.000000
    2    -1.000000    90.000000    -0.000000    -0.000000    -1.000000     0.000000     0.000000     0.000000
    3     1.000000   180.000000    -0.000000    -0.000000    -1.000000     0.000000     0.000000     0.000000
    4    -1.000000    90.000000    -0.000000     0.000000     1.000000     0.000000     0.000000     0.000000
    5    -1.000000   180.000000     0.000000    -1.000000     0.000000     0.000000     0.000000     0.000000
    6     1.000000   180.000000     0.707107     0.707107    -0.000000     0.000000     0.000000     0.000000
    7    -1.000000   180.000000     1.000000     0.000000     0.000000     0.000000     0.000000     0.000000
    8     1.000000   180.000000     0.707107    -0.707107     0.000000     0.000000     0.000000     0.000000
    9    -1.000000     0.000000     1.000000     0.000000     0.000000     0.250000     0.750000     0.500000
   10     1.000000    90.000000    -0.000000    -0.000000    -1.000000     0.250000     0.750000     0.500000
   11    -1.000000   180.000000    -0.000000    -0.000000    -1.000000     0.250000     0.750000     0.500000
   12     1.000000    90.000000    -0.000000     0.000000     1.000000     0.250000     0.750000     0.500000
   13     1.000000   180.000000     0.000000    -1.000000     0.000000     0.250000     0.750000     0.500000
   14    -1.000000   180.000000     0.707107     0.707107    -0.000000     0.250000     0.750000     0.500000
   15     1.000000   180.000000     1.000000     0.000000     0.000000     0.250000     0.750000     0.500000
   16    -1.000000   180.000000     0.707107    -0.707107     0.000000     0.250000     0.750000     0.500000

 Subroutine IBZKPT returns following result:

 Found     56 irreducible k-points:

 Following reciprocal coordinates:
            Coordinates               Weight
  0.062500  0.062500  0.062500    128.000000
  0.187500  0.062500  0.062500    256.000000
  0.312500  0.062500  0.062500    256.000000
  0.437500  0.062500  0.062500    128.000000
 -0.062500  0.062500  0.062500     64.000000
  0.187500  0.187500  0.062500    128.000000
  0.312500  0.187500  0.062500    256.000000
  0.437500  0.187500  0.062500    256.000000
 -0.437500  0.187500  0.062500    256.000000
 -0.312500  0.187500  0.062500    128.000000
 -0.187500  0.187500  0.062500    128.000000
 -0.062500  0.187500  0.062500    128.000000
  0.312500  0.312500  0.062500    128.000000
  0.437500  0.312500  0.062500    256.000000
 -0.437500  0.312500  0.062500    128.000000
 -0.312500  0.312500  0.062500    128.000000
 -0.187500  0.312500  0.062500    256.000000
 -0.062500  0.312500  0.062500    128.000000
  0.437500  0.437500  0.062500     64.000000
 -0.437500  0.437500  0.062500    128.000000
 -0.312500  0.437500  0.062500    256.000000
 -0.187500  0.437500  0.062500    256.000000
 -0.062500  0.437500  0.062500    128.000000
 -0.437500 -0.437500  0.062500    128.000000
 -0.312500 -0.437500  0.062500    256.000000
 -0.187500 -0.437500  0.062500    256.000000
 -0.062500 -0.437500  0.062500    128.000000
 -0.312500 -0.312500  0.062500    128.000000
 -0.187500 -0.312500  0.062500    256.000000
 -0.062500 -0.312500  0.062500    128.000000
 -0.187500 -0.187500  0.062500    128.000000
 -0.062500 -0.187500  0.062500    128.000000
 -0.062500 -0.062500  0.062500     32.000000
  0.187500  0.187500  0.187500    128.000000
  0.312500  0.187500  0.187500    128.000000
 -0.187500  0.187500  0.187500     64.000000
  0.312500  0.312500  0.187500     64.000000
 -0.312500  0.312500  0.187500    128.000000
 -0.187500  0.312500  0.187500    128.000000
 -0.437500  0.437500  0.187500    128.000000
 -0.312500  0.437500  0.187500    256.000000
 -0.187500  0.437500  0.187500    128.000000
 -0.437500 -0.437500  0.187500    128.000000
 -0.312500 -0.437500  0.187500    256.000000
 -0.187500 -0.437500  0.187500    128.000000
 -0.312500 -0.312500  0.187500    128.000000
 -0.187500 -0.312500  0.187500    128.000000
 -0.187500 -0.187500  0.187500     32.000000
 -0.312500  0.312500  0.312500     64.000000
 -0.437500  0.437500  0.312500    128.000000
 -0.312500  0.437500  0.312500    128.000000
 -0.437500 -0.437500  0.312500    128.000000
 -0.312500 -0.437500  0.312500    128.000000
 -0.312500 -0.312500  0.312500     32.000000
 -0.437500  0.437500  0.437500     64.000000
 -0.437500 -0.437500  0.437500     32.000000

 Following cartesian coordinates:
            Coordinates               Weight
  0.025510  0.025510  0.049058    128.000000
  0.025510  0.051020  0.098116    256.000000
  0.025510  0.076531  0.147174    256.000000
  0.025510  0.102041  0.196232    128.000000
  0.025510  0.000000  0.000000     64.000000
  0.051020  0.051020  0.147174    128.000000
  0.051020  0.076531  0.196232    256.000000
  0.051020  0.102041  0.245290    256.000000
  0.051020 -0.076531 -0.098116    256.000000
  0.051020 -0.051020 -0.049058    128.000000
  0.051020 -0.025510  0.000000    128.000000
  0.051020  0.000000  0.049058    128.000000
  0.076531  0.076531  0.245290    128.000000
  0.076531  0.102041  0.294349    256.000000
  0.076531 -0.076531 -0.049058    128.000000
  0.076531 -0.051020  0.000000    128.000000
  0.076531 -0.025510  0.049058    256.000000
  0.076531  0.000000  0.098116    128.000000
  0.102041  0.102041  0.343407     64.000000
  0.102041 -0.076531  0.000000    128.000000
  0.102041 -0.051020  0.049058    256.000000
  0.102041 -0.025510  0.098116    256.000000
  0.102041  0.000000  0.147174    128.000000
 -0.076531 -0.076531 -0.343407    128.000000
 -0.076531 -0.051020 -0.294349    256.000000
 -0.076531 -0.025510 -0.245290    256.000000
 -0.076531 -0.000000 -0.196232    128.000000
 -0.051020 -0.051020 -0.245290    128.000000
 -0.051020 -0.025510 -0.196232    256.000000
 -0.051020 -0.000000 -0.147174    128.000000
 -0.025510 -0.025510 -0.147174    128.000000
 -0.025510  0.000000 -0.098116    128.000000
 -0.000000  0.000000 -0.049058     32.000000
  0.076531  0.076531  0.147174    128.000000
  0.076531  0.102041  0.196232    128.000000
  0.076531  0.000000  0.000000     64.000000
  0.102041  0.102041  0.245290     64.000000
  0.102041 -0.025510 -0.000000    128.000000
  0.102041  0.000000  0.049058    128.000000
  0.127551 -0.051020  0.000000    128.000000
  0.127551 -0.025510  0.049058    256.000000
  0.127551  0.000000  0.098116    128.000000
 -0.051020 -0.051020 -0.343407    128.000000
 -0.051020 -0.025510 -0.294349    256.000000
 -0.051020  0.000000 -0.245290    128.000000
 -0.025510 -0.025510 -0.245290    128.000000
 -0.025510 -0.000000 -0.196232    128.000000
  0.000000  0.000000 -0.147174     32.000000
  0.127551  0.000000  0.000000     64.000000
  0.153061 -0.025510  0.000000    128.000000
  0.153061  0.000000  0.049058    128.000000
 -0.025510 -0.025510 -0.343407    128.000000
 -0.025510 -0.000000 -0.294349    128.000000
 -0.000000  0.000000 -0.245290     32.000000
  0.178571  0.000000  0.000000     64.000000
 -0.000000  0.000000 -0.343407     32.000000

 SYSTEM =  unknown system
 POSCAR =  Si2

 Startparameter for this run:
   NWRITE =      2    write-flag & timer
   PREC   = normal    normal or accurate (medium, high low for compatibility)
   ISTART =      0    job   : 0-new  1-cont  2-samecut
   ICHARG =      2    charge: 1-file 2-atom 10-const
   ISPIN  =      1    spin polarized calculation?
   LNONCOLLINEAR =      F non collinear calculations
   LSORBIT =      F    spin-orbit coupling
   INIWAV =      1    electr: 0-lowe 1-rand  2-diag
   LASPH  =      F    aspherical Exc in radial PAW
   METAGGA=      F    non-selfconsistent MetaGGA calc.

 Electronic Relaxation 1
   ENCUT  =  250.0 eV  18.37 Ry    4.29 a.u.   4.76  4.76  4.76*2*pi/ulx,y,z
   ENINI  =  250.0     initial cutoff
   ENAUG  =  322.1 eV  augmentation charge cutoff
   NELM   =     60;   NELMIN=  2; NELMDL= -5     # of ELM steps
   EDIFF  = 0.4E-03   stopping-criterion for ELM
   LREAL  =      F    real-space projection
   NLSPLINE    = F    spline interpolate recip. space projectors
   LCOMPAT=      F    compatible to vasp.4.4
   GGA_COMPAT  = T    GGA compatible to vasp.4.4-vasp.4.6
   LMAXPAW     = -100 max onsite density
   LMAXMIX     =    2 max onsite mixed and CHGCAR
   VOSKOWN=      0    Vosko Wilk Nusair interpolation
   ROPT   =    0.00000
 Ionic relaxation
   EDIFFG = -.1E-01   stopping-criterion for IOM
[...]
  -0.43750000  0.43750000  0.18750000       0.016
  -0.31250000  0.43750000  0.18750000       0.031
  -0.18750000  0.43750000  0.18750000       0.016
  -0.43750000 -0.43750000  0.18750000       0.016
  -0.31250000 -0.43750000  0.18750000       0.031
  -0.18750000 -0.43750000  0.18750000       0.016
  -0.31250000 -0.31250000  0.18750000       0.016
  -0.18750000 -0.31250000  0.18750000       0.016
  -0.18750000 -0.18750000  0.18750000       0.004
  -0.31250000  0.31250000  0.31250000       0.008
  -0.43750000  0.43750000  0.31250000       0.016
  -0.31250000  0.43750000  0.31250000       0.016
  -0.43750000 -0.43750000  0.31250000       0.016
  -0.31250000 -0.43750000  0.31250000       0.016
  -0.31250000 -0.31250000  0.31250000       0.004
  -0.43750000  0.43750000  0.43750000       0.008
  -0.43750000 -0.43750000  0.43750000       0.004

 position of ions in fractional coordinates (direct lattice)
   0.25000000  0.75000000  0.50000000
   0.00000000  0.00000000  0.00000000

 position of ions in cartesian coordinates  (Angst):
   2.45000000  0.00000000  0.63700000
   0.00000000  0.00000000  0.00000000

 k-point  1 :   0.0625 0.0625 0.0625  plane waves:     269
 k-point  2 :   0.1875 0.0625 0.0625  plane waves:     273
 k-point  3 :   0.3125 0.0625 0.0625  plane waves:     274
 k-point  4 :   0.4375 0.0625 0.0625  plane waves:     280
 k-point  5 :  -0.0625 0.0625 0.0625  plane waves:     275
 k-point  6 :   0.1875 0.1875 0.0625  plane waves:     275
 k-point  7 :   0.3125 0.1875 0.0625  plane waves:     272
 k-point  8 :   0.4375 0.1875 0.0625  plane waves:     272
 k-point  9 :  -0.4375 0.1875 0.0625  plane waves:     273
 k-point 10 :  -0.3125 0.1875 0.0625  plane waves:     279
 k-point 11 :  -0.1875 0.1875 0.0625  plane waves:     281
 k-point 12 :  -0.0625 0.1875 0.0625  plane waves:     274
 k-point 13 :   0.3125 0.3125 0.0625  plane waves:     273
 k-point 14 :   0.4375 0.3125 0.0625  plane waves:     273
 k-point 15 :  -0.4375 0.3125 0.0625  plane waves:     276
 k-point 16 :  -0.3125 0.3125 0.0625  plane waves:     282
 k-point 17 :  -0.1875 0.3125 0.0625  plane waves:     275
 k-point 18 :  -0.0625 0.3125 0.0625  plane waves:     273
 k-point 19 :   0.4375 0.4375 0.0625  plane waves:     280
 k-point 20 :  -0.4375 0.4375 0.0625  plane waves:     275
 k-point 21 :  -0.3125 0.4375 0.0625  plane waves:     277
 k-point 22 :  -0.1875 0.4375 0.0625  plane waves:     272
 k-point 23 :  -0.0625 0.4375 0.0625  plane waves:     277
 k-point 24 :  -0.4375-0.4375 0.0625  plane waves:     275
 k-point 25 :  -0.3125-0.4375 0.0625  plane waves:     273
 k-point 26 :  -0.1875-0.4375 0.0625  plane waves:     274
 k-point 27 :  -0.0625-0.4375 0.0625  plane waves:     279
 k-point 28 :  -0.3125-0.3125 0.0625  plane waves:     272
 k-point 29 :  -0.1875-0.3125 0.0625  plane waves:     274
 k-point 30 :  -0.0625-0.3125 0.0625  plane waves:     273
 k-point 31 :  -0.1875-0.1875 0.0625  plane waves:     275
 k-point 32 :  -0.0625-0.1875 0.0625  plane waves:     274
 k-point 33 :  -0.0625-0.0625 0.0625  plane waves:     275
 k-point 34 :   0.1875 0.1875 0.1875  plane waves:     271
 k-point 35 :   0.3125 0.1875 0.1875  plane waves:     270
 k-point 36 :  -0.1875 0.1875 0.1875  plane waves:     270
 k-point 37 :   0.3125 0.3125 0.1875  plane waves:     272
 k-point 38 :  -0.3125 0.3125 0.1875  plane waves:     277
 k-point 39 :  -0.1875 0.3125 0.1875  plane waves:     275
 k-point 40 :  -0.4375 0.4375 0.1875  plane waves:     273
 k-point 41 :  -0.3125 0.4375 0.1875  plane waves:     277
 k-point 42 :  -0.1875 0.4375 0.1875  plane waves:     273
 k-point 43 :  -0.4375-0.4375 0.1875  plane waves:     276
 k-point 44 :  -0.3125-0.4375 0.1875  plane waves:     278
 k-point 45 :  -0.1875-0.4375 0.1875  plane waves:     277
 k-point 46 :  -0.3125-0.3125 0.1875  plane waves:     278
 k-point 47 :  -0.1875-0.3125 0.1875  plane waves:     274
 k-point 48 :  -0.1875-0.1875 0.1875  plane waves:     271
 k-point 49 :  -0.3125 0.3125 0.3125  plane waves:     270
 k-point 50 :  -0.4375 0.4375 0.3125  plane waves:     272
 k-point 51 :  -0.3125 0.4375 0.3125  plane waves:     277
 k-point 52 :  -0.4375-0.4375 0.3125  plane waves:     276
 k-point 53 :  -0.3125-0.4375 0.3125  plane waves:     276
 k-point 54 :  -0.3125-0.3125 0.3125  plane waves:     275
 k-point 55 :  -0.4375 0.4375 0.4375  plane waves:     278
 k-point 56 :  -0.4375-0.4375 0.4375  plane waves:     272

 maximum and minimum number of plane-waves per node :       282      269

 maximum number of plane-waves:       282
 maximum index in each direction:
   IXMAX=    5   IYMAX=    5   IZMAX=    4
   IXMIN=   -5   IYMIN=   -5   IZMIN=   -5

 serial   3D FFT for wavefunctions
 parallel 3D FFT for charge:
    minimum data exchange during FFTs selected (reduces bandwidth)

 Broyden mixing: mesh for mixing (old mesh)
   NGX =  9   NGY =  9   NGZ =  9
  (NGX  = 28   NGY  = 28   NGZ  = 28)
  gives a total of    729 points

 initial charge density was supplied:
 charge density of overlapping atoms calculated
 number of electron       8.0000000 magnetization
 keeping initial charge density in first step

 Maximum index for augmentation-charges          442 (set IRDMAX)

 First call to EWALD:  gamma=   0.567
 Maximum number of real-space cells 4x 4x 3
 Maximum number of reciprocal cells 3x 3x 3

--------------------------------------- Iteration      1(   1)  ---------------------------------------

 eigenvalue-minimisations  :   904
 total energy-change (2. order) :-0.2016722E+01  (-0.2306673E+03)
 number of electron       8.0000000 magnetization
 augmentation part        8.0000000 magnetization

 Free energy of the ion-electron system (eV)
  alpha Z        PSCENC =         4.40202223
  Ewald energy   TEWEN  =      -265.18101312
  -Hartree energ DENC   =        -2.30415367
  -exchange      EXHF   =         0.00000000
  -V(xc)+E(xc)   XCENC  =       -17.81545108
  PAW double counting   =        65.95520812      -30.76852678
  entropy T*S    EENTRO =        -0.00568502
  eigenvalues    EBANDS =        37.57737773
  atomic energy  EATOM  =       206.12349923
  Solvation  Ediel_sol  =         0.00000000
  free energy    TOTEN  =        -2.01672236 eV

  energy without entropy =       -2.01103734  energy(sigma->0) =       -2.01387985

[...]

 Broyden mixing:
  rms(total) = 0.14850E+00    rms(broyden)= 0.14848E+00
  rms(prec ) = 0.33272E+00
  weight for this iteration     100.00

[...]

 eigenvalue-minimisations  :  1104
 total energy-change (2. order) : 0.5336193E-02  (-0.1872500E-03)
 number of electron       7.9999993 magnetization
 augmentation part       -0.4702568 magnetization

[...]

 eigenvalues of (default mixing * dielectric matrix)
  average eigenvalue GAMMA=   2.6672
  2.6672

[...]

 average (electrostatic) potential at core
  the test charge radii are     0.9892
  (the norm of the test charge is              1.0000)
       1 -80.5555       2 -80.5555

 E-fermi :   9.0700     XC(G=0): -10.8935     alpha+bet :-15.6819

 k-point     1 :       0.0625    0.0625    0.0625
  band No.  band energies     occupation
      1      -4.0826      2.00000
      2       4.3966      2.00000
      3       6.7668      2.00000
      4       8.0747      2.00000
      5      11.9861      0.00000
      6      14.5234      0.00000
      7      15.3401      0.00000
      8      16.5730      0.00000

[...]

 soft charge-density along one line, spin component           1
         0         1         2         3         4         5         6         7         8         9
 total charge-density along one line

------------------------ aborting loop because EDIFF is reached ----------------------------------------

  FORCE on cell =-STRESS in cart. coord.  units (eV):
  Direction    XX          YY          ZZ          XY          YZ          ZX
  Alpha Z     4.40202     4.40202     4.40202
  Ewald     -90.96023   -90.96023   -83.26083    -0.00000     0.00000     0.00000
  Hartree     0.54722     0.54722     1.39125     0.00000     0.00000     0.00000
  E(xc)     -25.42547   -25.42547   -25.38299     0.00005     0.00001     0.00001
  Local     -11.16124   -11.16124   -17.64057    -0.00002    -0.00005    -0.00005
  n-local    76.99313    76.94964    76.60255     0.96231    -0.44736    -0.41226
  augment   -12.06124   -12.06124   -12.00139     0.00004     0.00005     0.00005
  Kinetic    56.95217    57.21267    57.16185     3.22636    -2.05935    -2.75581
  Fock        0.00000     0.00000     0.00000     0.00000     0.00000     0.00000
  Total      -0.60512    -0.60512     1.27188    -0.00000     0.00000     0.00000
  in kB     -31.69513   -31.69513    66.61880    -0.00000     0.00000     0.00000

 VOLUME and BASIS-vectors are now :
  energy-cutoff  :      250.00
  volume of cell :       30.59
      direct lattice vectors                 reciprocal lattice vectors
    -2.450000000  2.450000000  1.274000000     0.000000000  0.204081633  0.392464678
     2.450000000 -2.450000000  1.274000000     0.204081633  0.000000000  0.392464678
     2.450000000  2.450000000 -1.274000000     0.204081633  0.204081633 -0.000000000

[...]

 FORCES acting on ions
    electron-ion (+dipol)            ewald-force                    non-local-force                 convergence-correction
   0.945E-05 -.945E-05 0.662E-14   0.198E-14 0.156E-15 0.342E-17   0.368E-16 -.395E-16 -.269E-17   -.196E-06 0.196E-06 -.354E-16
   -.945E-05 0.945E-05 0.157E-14   -.185E-14 0.943E-16 0.891E-15   -.926E-17 0.254E-16 0.239E-16   0.196E-06 -.196E-06 0.848E-16
   -.151E-13 0.102E-13 0.819E-14   0.139E-15 0.250E-15 0.894E-15   0.276E-16 -.141E-16 0.212E-16   -.386E-16 0.591E-16 0.494E-16

 POSITION                                       TOTAL-FORCE (eV/Angst)
      2.45000      0.00000      0.63700         0.000000     -0.000000      0.000000
      0.00000      0.00000      0.00000        -0.000000      0.000000     -0.000000
    total drift:                               -0.000000      0.000000      0.000000

  FREE ENERGIE OF THE ION-ELECTRON SYSTEM (eV)
  free  energy   TOTEN  =       -10.18756408 eV

  energy  without entropy=      -10.16566767  energy(sigma->0) =      -10.17661587

[...]

 d Force = 0.0000000E+00[ 0.000E+00, 0.000E+00]  d Energy = 0.4686563E-01-0.469E-01
 d Force = 0.0000000E+00[ 0.000E+00, 0.000E+00]  d Ewald  = 0.4500939E-01-0.450E-01

 Steepest descent step on ions:
 trial-energy change:   -0.046866  1 .order   -0.045811   -0.056686   -0.034936
  (g-gl).g = 0.567E-01      g.g   = 0.567E-01  gl.gl    = 0.000E+00
 g(Force)  = 0.140E-45   g(Stress)= 0.567E-01 ortho     = 0.000E+00
 gamma     =   0.00000
 trial     =   1.00000
 opt step  =   2.60630  (harmonic =   2.60630) maximal distance =0.00000000
 next E    =   -10.261434   (d E  =  -0.07387)

[...]

 d Force = 0.0000000E+00[ 0.000E+00, 0.000E+00]  d Energy = 0.3696382E-02-0.370E-02
 d Force = 0.0000000E+00[ 0.000E+00, 0.000E+00]  d Ewald  =-0.1165328E+00 0.117E+00

[...]

 eigenvalues of (default mixing * dielectric matrix)
  average eigenvalue GAMMA=   1.3936
  2.2510  0.5361

[...]

 d Force = 0.0000000E+00[ 0.000E+00, 0.000E+00]  d Energy = 0.2577671E-04-0.258E-04
 d Force = 0.0000000E+00[ 0.000E+00, 0.000E+00]  d Ewald  =-0.3736696E-02 0.374E-02

[...]

 d Force = 0.0000000E+00[ 0.000E+00, 0.000E+00]  d Energy =-0.2618184E-04 0.262E-04
 d Force = 0.0000000E+00[ 0.000E+00, 0.000E+00]  d Ewald  =-0.1119925E-02 0.112E-02

[...]

 Broyden mixing:
  rms(total) = 0.29163E-04    rms(broyden)= 0.27188E-04
  rms(prec ) = 0.84124E-04
  weight for this iteration     100.00

[...]

 Broyden mixing:
  rms(total) = 0.15646E-04    rms(broyden)= 0.11564E-04
  rms(prec ) = 0.35761E-04
  weight for this iteration     100.00
  WARNING: grid for Broyden might be to small

[...]

 eigenvalue-minimisations  :   448
 total energy-change (2. order) :-0.6167284E-08  (-0.4327981E-11)
 number of electron       7.9999987 magnetization
 augmentation part       -0.4725402 magnetization

 Broyden mixing:
  rms(total) = 0.10548E-04    rms(broyden)= 0.46933E-06
  rms(prec ) = 0.14529E-05
  weight for this iteration     100.00
  WARNING: grid for Broyden might be to small

[...]

--------------------------------------- Iteration     15(   2)  ---------------------------------------

 eigenvalue-minimisations  :   448
 total energy-change (2. order) : 0.6625100E-09  (-0.1724079E-12)
 number of electron       7.9999987 magnetization
 augmentation part       -0.4725402 magnetization

 Free energy of the ion-electron system (eV)
  alpha Z        PSCENC =         4.40005672
  Ewald energy   TEWEN  =      -265.18788536
  -Hartree energ DENC   =        -2.48474291
  -exchange      EXHF   =         0.00000000
  -V(xc)+E(xc)   XCENC  =       -17.57298890
  PAW double counting   =        70.93942182      -35.86305155
  entropy T*S    EENTRO =        -0.01865146
  eigenvalues    EBANDS =        29.41442950
  atomic energy  EATOM  =       206.12349923
  Solvation  Ediel_sol  =         0.00000000
  free energy    TOTEN  =       -10.24991292 eV

  energy without entropy =      -10.23126146  energy(sigma->0) =      -10.24058719

 average (electrostatic) potential at core
  the test charge radii are     0.9892
  (the norm of the test charge is              1.0000)
       1 -80.5397       2 -80.5397

 E-fermi :   9.0776     XC(G=0): -10.8909     alpha+bet :-15.6749

[...]

 k-point    56 :      -0.4375   -0.4375    0.4375
  band No.  band energies     occupation
      1       1.2413      2.00000
      2       1.2860      2.00000
      3       2.6870      2.00000
      4       2.6870      2.00000
      5      10.2483      0.00000
      6      18.3637      0.00000
      7      20.8334      0.00000
      8      20.8335      0.00000

 soft charge-density along one line, spin component           1
         0         1         2         3         4         5         6         7         8         9
 total charge-density along one line

------------------------ aborting loop because EDIFF is reached ----------------------------------------

  FORCE on cell =-STRESS in cart. coord.  units (eV):
  Direction    XX          YY          ZZ          XY          YZ          ZX
  Alpha Z     4.40006     4.40006     4.40006
  Ewald     -86.50916   -86.50916   -92.16979    -0.00000     0.00000     0.00000
  Hartree     0.88210     0.88210     0.72054     0.00000     0.00000     0.00000
  E(xc)     -25.48341   -25.48341   -25.32009     0.00004     0.00001     0.00001
  Local     -15.94927   -15.94927    -8.22782    -0.00004    -0.00005    -0.00005
  n-local    78.06156    77.95982    74.88485     1.27578    -0.46271    -0.65173
  augment   -12.10526   -12.10526   -11.86593     0.00004     0.00005     0.00005
  Kinetic    54.89051    58.80468    57.64739     2.73037    -1.59163    -1.56591
  Fock        0.00000     0.00000     0.00000     0.00000     0.00000     0.00000
  Total       0.09335     0.09335     0.06922     0.00000     0.00000     0.00000
  in kB       4.88734     4.88734     3.62411     0.00000     0.00000     0.00000

 VOLUME and BASIS-vectors are now :
  energy-cutoff  :      250.00
  volume of cell :       30.60
      direct lattice vectors                 reciprocal lattice vectors
    -2.383504657  2.383504657  1.346677314    -0.000000000  0.209775130  0.371284193
     2.383504657 -2.383504657  1.346677314     0.209775130 -0.000000000  0.371284193
     2.383504657  2.383504657 -1.346677314     0.209775130  0.209775130 -0.000000000

  length of vectors
     3.629838658  3.629838658  3.629838658     0.426447602  0.426447602  0.296666834

 FORCES acting on ions
    electron-ion (+dipol)            ewald-force                    non-local-force                 convergence-correction
   0.812E-05 -.812E-05 0.300E-13   -.927E-14 0.418E-14 -.330E-14   0.338E-16 -.217E-16 0.681E-17   -.106E-10 0.106E-10 0.796E-16
   -.812E-05 0.812E-05 -.208E-13   0.934E-14 -.389E-14 0.236E-14   -.154E-16 0.124E-16 -.236E-16   0.106E-10 -.106E-10 0.142E-16
   -.172E-13 0.115E-13 0.923E-14   0.636E-16 0.286E-15 -.935E-15   0.184E-16 -.935E-17 -.168E-16   -.205E-15 -.133E-15 0.937E-16

 POSITION                                       TOTAL-FORCE (eV/Angst)
      2.38350     -0.00000      0.67334         0.000000      0.000000     -0.000000
     -0.00000      0.00000     -0.00000        -0.000000     -0.000000      0.000000
    total drift:                               -0.000000      0.000000      0.000000

  FREE ENERGIE OF THE ION-ELECTRON SYSTEM (eV)
  free  energy   TOTEN  =       -10.24991292 eV

  energy  without entropy=      -10.23126146  energy(sigma->0) =      -10.24058719

 d Force = 0.0000000E+00[ 0.000E+00, 0.000E+00]  d Energy = 0.4927045E-08-0.493E-08
 d Force = 0.0000000E+00[ 0.000E+00, 0.000E+00]  d Ewald  = 0.5307481E-06-0.531E-06

 writing wavefunctions