 vasp.5.4.4.18Apr17-6-g9f103f2a35 (build Dec 09 2018 21:25:21) complex

 executed on IFC18.0.1.163_CrayMP date 2019.03.19  13:15:43

 INCAR:
 POTCAR:   PAW_PBE Si 05Jan2001

 POTCAR:   PAW_PBE Si 05Jan2001
   VRHFIN =Si: s2p2

   TITEL  = PAW_PBE Si 05Jan2001
   POMASS =   28.085; ZVAL   =    4.000    mass and valenz
   ENMAX  =  245.345; ENMIN  =  184.009 eV
   QCUT   =   -4.246; QGAM   =    8.493    optimization parameters

   Description
     l     E      TYP  RCUT    TYP  RCUT
     0   .000     23  1.900
     0   .000     23  1.900
     1   .000     23  1.900
     1   .000     23  1.900
     2   .000      7  1.900

 PAW_PBE Si 05Jan2001                   :

 POSCAR: Si2
  positions in direct lattice
 exchange correlation table for  LEXCH =        8
   RHO(1)=    0.500       N(1)  =     2000
   RHO(2)=  100.500       N(2)  =     4000

 ion  position               nearest neighbor table
   1  0.250  0.750  0.500-   2 2.53   2 2.53   2 2.53   2 2.53   2 3.11   2 3.11   2 3.11   2 3.11

   2  0.000  0.000  0.000-   1 2.53   1 2.53   1 2.53   1 2.53   1 3.11   1 3.11   1 3.11   1 3.11

  LATTYP: Found a body centered tetragonal cell.
 ALAT       =     4.9000000000
 C/A-ratio  =     0.5200000000

  Lattice vectors:

 A1 = (  -2.4500000000,   2.4500000000,   1.2740000000)
 A2 = (   2.4500000000,  -2.4500000000,   1.2740000000)
 A3 = (   2.4500000000,   2.4500000000,  -1.2740000000)

Analysis of symmetry for initial positions (statically):
 Subroutine PRICEL returns:
 Original cell was already a primitive cell.

 Routine SETGRP: Setting up the symmetry group for a
 body centered tetragonal supercell.

 Subroutine GETGRP returns: Found 16 space group operations
 (whereof  8 operations were pure point group operations)
 out of a pool of 16 trial point group operations.

The static configuration has the point symmetry D_2d.
 The point group associated with its full space group is D_4h.

Analysis of symmetry for dynamics (positions and initial velocities):
 Subroutine PRICEL returns:
 Original cell was already a primitive cell.

 Routine SETGRP: Setting up the symmetry group for a
 body centered tetragonal supercell.

 Subroutine GETGRP returns: Found 16 space group operations
 (whereof  8 operations were pure point group operations)
 out of a pool of 16 trial point group operations.

The dynamic configuration has the point symmetry D_2d.
 The point group associated with its full space group is D_4h.

 Subroutine INISYM returns: Found 16 space group operations
 (whereof  8 operations are pure point group operations),
 and found     1 'primitive' translations

 KPOINTS: Automatic kpoint scheme

Automatic generation of k-mesh.
Space group operators:
 irot       det(A)        alpha          n_x          n_y          n_z        tau_x        tau_y        tau_z
    1     1.000000     0.000000     1.000000     0.000000     0.000000     0.000000     0.000000     0.000000
    2    -1.000000    90.000000    -0.000000    -0.000000    -1.000000     0.000000     0.000000     0.000000
    3     1.000000   180.000000    -0.000000    -0.000000    -1.000000     0.000000     0.000000     0.000000
    4    -1.000000    90.000000    -0.000000     0.000000     1.000000     0.000000     0.000000     0.000000
    5    -1.000000   180.000000     0.000000    -1.000000     0.000000     0.000000     0.000000     0.000000
    6     1.000000   180.000000     0.707107     0.707107    -0.000000     0.000000     0.000000     0.000000
    7    -1.000000   180.000000     1.000000     0.000000     0.000000     0.000000     0.000000     0.000000
    8     1.000000   180.000000     0.707107    -0.707107     0.000000     0.000000     0.000000     0.000000
    9    -1.000000     0.000000     1.000000     0.000000     0.000000     0.250000     0.750000     0.500000
   10     1.000000    90.000000    -0.000000    -0.000000    -1.000000     0.250000     0.750000     0.500000
   11    -1.000000   180.000000    -0.000000    -0.000000    -1.000000     0.250000     0.750000     0.500000
   12     1.000000    90.000000    -0.000000     0.000000     1.000000     0.250000     0.750000     0.500000
   13     1.000000   180.000000     0.000000    -1.000000     0.000000     0.250000     0.750000     0.500000
   14    -1.000000   180.000000     0.707107     0.707107    -0.000000     0.250000     0.750000     0.500000
   15     1.000000   180.000000     1.000000     0.000000     0.000000     0.250000     0.750000     0.500000
   16    -1.000000   180.000000     0.707107    -0.707107     0.000000     0.250000     0.750000     0.500000

 Subroutine IBZKPT returns following result:

 Found    126 irreducible k-points:

 Following reciprocal coordinates:
            Coordinates               Weight
  0.000000  0.000000  0.000000      1.000000
  0.090909 -0.000000  0.000000      8.000000
  0.181818 -0.000000  0.000000      8.000000
  0.272727 -0.000000  0.000000      8.000000
  0.363636 -0.000000  0.000000      8.000000
  0.454545 -0.000000 -0.000000      8.000000
  0.090909  0.090909  0.000000      8.000000
  0.181818  0.090909 -0.000000     16.000000
  0.272727  0.090909  0.000000     16.000000
  0.363636  0.090909  0.000000     16.000000
  0.454545  0.090909 -0.000000     16.000000
 -0.454545  0.090909 -0.000000     16.000000
 -0.363636  0.090909  0.000000     16.000000
 -0.272727  0.090909  0.000000     16.000000
 -0.181818  0.090909  0.000000     16.000000
 -0.090909  0.090909  0.000000      4.000000
  0.181818  0.181818  0.000000      8.000000
  0.272727  0.181818  0.000000     16.000000
  0.363636  0.181818 -0.000000     16.000000
  0.454545  0.181818 -0.000000     16.000000
 -0.454545  0.181818 -0.000000     16.000000
 -0.363636  0.181818  0.000000     16.000000
 -0.272727  0.181818 -0.000000     16.000000
 -0.181818  0.181818  0.000000      4.000000
  0.272727  0.272727 -0.000000      8.000000
  0.363636  0.272727 -0.000000     16.000000
  0.454545  0.272727  0.000000     16.000000
 -0.454545  0.272727  0.000000     16.000000
 -0.363636  0.272727 -0.000000     16.000000
 -0.272727  0.272727 -0.000000      4.000000
  0.363636  0.363636  0.000000      8.000000
  0.454545  0.363636 -0.000000     16.000000
 -0.454545  0.363636 -0.000000     16.000000
 -0.363636  0.363636  0.000000      4.000000
  0.454545  0.454545 -0.000000      8.000000
 -0.454545  0.454545 -0.000000      4.000000
  0.090909  0.090909  0.090909      8.000000
  0.181818  0.090909  0.090909     16.000000
  0.272727  0.090909  0.090909     16.000000
  0.363636  0.090909  0.090909     16.000000
 -0.090909  0.090909  0.090909      4.000000
  0.181818  0.181818  0.090909      8.000000
  0.272727  0.181818  0.090909     16.000000
  0.363636  0.181818  0.090909     16.000000
  0.454545  0.181818  0.090909     16.000000
 -0.454545  0.181818  0.090909     16.000000
 -0.363636  0.181818  0.090909      8.000000
 -0.181818  0.181818  0.090909      8.000000
 -0.090909  0.181818  0.090909      8.000000
  0.272727  0.272727  0.090909      8.000000
  0.363636  0.272727  0.090909     16.000000
  0.454545  0.272727  0.090909     16.000000
 -0.454545  0.272727  0.090909      8.000000
 -0.272727  0.272727  0.090909      8.000000
 -0.181818  0.272727  0.090909     16.000000
 -0.090909  0.272727  0.090909      8.000000
  0.363636  0.363636  0.090909      8.000000
  0.454545  0.363636  0.090909      8.000000
 -0.363636  0.363636  0.090909      8.000000
 -0.272727  0.363636  0.090909     16.000000
[...]
 -0.272727  0.454545  0.272727      8.000000
 -0.454545 -0.454545  0.272727      8.000000
 -0.363636 -0.454545  0.272727     16.000000
 -0.272727 -0.454545  0.272727      8.000000
 -0.363636 -0.363636  0.272727      8.000000
 -0.272727 -0.363636  0.272727      8.000000
 -0.272727 -0.272727  0.272727      2.000000
 -0.363636  0.363636  0.363636      4.000000
 -0.454545  0.454545  0.363636      8.000000
 -0.363636  0.454545  0.363636      8.000000
 -0.454545 -0.454545  0.363636      8.000000
 -0.363636 -0.454545  0.363636      8.000000
 -0.363636 -0.363636  0.363636      2.000000
 -0.454545  0.454545  0.454545      4.000000
 -0.454545 -0.454545  0.454545      2.000000

 Following cartesian coordinates:
            Coordinates               Weight
  0.000000  0.000000  0.000000      1.000000
  0.000000  0.018553  0.035679      8.000000
  0.000000  0.037106  0.071357      8.000000
  0.000000  0.055659  0.107036      8.000000
  0.000000  0.074212  0.142714      8.000000
 -0.000000  0.092764  0.178393      8.000000
  0.018553  0.018553  0.071357      8.000000
  0.018553  0.037106  0.107036     16.000000
  0.018553  0.055659  0.142714     16.000000
  0.018553  0.074212  0.178393     16.000000
  0.018553  0.092764  0.214072     16.000000
  0.018553 -0.092764 -0.142714     16.000000
  0.018553 -0.074212 -0.107036     16.000000
  0.018553 -0.055659 -0.071357     16.000000
  0.018553 -0.037106 -0.035679     16.000000
  0.018553 -0.018553  0.000000      4.000000
  0.037106  0.037106  0.142714      8.000000
  0.037106  0.055659  0.178393     16.000000
  0.037106  0.074212  0.214072     16.000000
  0.037106  0.092764  0.249750     16.000000
  0.037106 -0.092764 -0.107036     16.000000
  0.037106 -0.074212 -0.071357     16.000000
  0.037106 -0.055659 -0.035679     16.000000
  0.037106 -0.037106  0.000000      4.000000
  0.055659  0.055659  0.214072      8.000000
  0.055659  0.074212  0.249750     16.000000
  0.055659  0.092764  0.285429     16.000000
  0.055659 -0.092764 -0.071357     16.000000
  0.055659 -0.074212 -0.035679     16.000000
  0.055659 -0.055659  0.000000      4.000000
  0.074212  0.074212  0.285429      8.000000
  0.074212  0.092764  0.321107     16.000000
  0.074212 -0.092764 -0.035679     16.000000
  0.074212 -0.074212  0.000000      4.000000
  0.092764  0.092764  0.356786      8.000000
  0.092764 -0.092764 -0.000000      4.000000
  0.037106  0.037106  0.071357      8.000000
  0.037106  0.055659  0.107036     16.000000
  0.037106  0.074212  0.142714     16.000000
  0.037106  0.092764  0.178393     16.000000
  0.037106  0.000000  0.000000      4.000000
  0.055659  0.055659  0.142714      8.000000
  0.055659  0.074212  0.178393     16.000000
  0.055659  0.092764  0.214072     16.000000
  0.055659  0.111317  0.249750     16.000000
  0.055659 -0.074212 -0.107036     16.000000
  0.055659 -0.055659 -0.071357      8.000000
  0.055659 -0.018553 -0.000000      8.000000
  0.055659 -0.000000  0.035679      8.000000
  0.074212  0.074212  0.214072      8.000000
  0.074212  0.092764  0.249750     16.000000
  0.074212  0.111317  0.285429     16.000000
  0.074212 -0.074212 -0.071357      8.000000
  0.074212 -0.037106  0.000000      8.000000
  0.074212 -0.018553  0.035679     16.000000
  0.074212  0.000000  0.071357      8.000000
  0.092764  0.092764  0.285429      8.000000
  0.092764  0.111317  0.321107      8.000000
  0.092764 -0.055659  0.000000      8.000000
  0.092764 -0.037106  0.035679     16.000000
[...]
  0.148423 -0.000000  0.071357      8.000000
 -0.037106 -0.037106 -0.356786      8.000000
 -0.037106 -0.018553 -0.321107     16.000000
 -0.037106  0.000000 -0.285429      8.000000
 -0.018553 -0.018553 -0.285429      8.000000
 -0.018553 -0.000000 -0.249750      8.000000
[...]
   0.18181818 -0.00000000  0.00000000       0.006
   0.27272727 -0.00000000  0.00000000       0.006
   0.36363636 -0.00000000  0.00000000       0.006
   0.45454545 -0.00000000 -0.00000000       0.006
   0.09090909  0.09090909  0.00000000       0.006
   0.18181818  0.09090909 -0.00000000       0.012
   0.27272727  0.09090909  0.00000000       0.012
   0.36363636  0.09090909  0.00000000       0.012
   0.45454545  0.09090909 -0.00000000       0.012
  -0.45454545  0.09090909 -0.00000000       0.012
  -0.36363636  0.09090909  0.00000000       0.012
  -0.27272727  0.09090909  0.00000000       0.012
  -0.18181818  0.09090909  0.00000000       0.012
  -0.09090909  0.09090909  0.00000000       0.003
   0.18181818  0.18181818  0.00000000       0.006
   0.27272727  0.18181818  0.00000000       0.012
   0.36363636  0.18181818 -0.00000000       0.012
   0.45454545  0.18181818 -0.00000000       0.012
  -0.45454545  0.18181818 -0.00000000       0.012
  -0.36363636  0.18181818  0.00000000       0.012
  -0.27272727  0.18181818 -0.00000000       0.012
  -0.18181818  0.18181818  0.00000000       0.003
   0.27272727  0.27272727 -0.00000000       0.006
   0.36363636  0.27272727 -0.00000000       0.012
   0.45454545  0.27272727  0.00000000       0.012
  -0.45454545  0.27272727  0.00000000       0.012
  -0.36363636  0.27272727 -0.00000000       0.012
  -0.27272727  0.27272727 -0.00000000       0.003
   0.36363636  0.36363636  0.00000000       0.006
   0.45454545  0.36363636 -0.00000000       0.012
  -0.45454545  0.36363636 -0.00000000       0.012
  -0.36363636  0.36363636  0.00000000       0.003
   0.45454545  0.45454545 -0.00000000       0.006
  -0.45454545  0.45454545 -0.00000000       0.003
   0.09090909  0.09090909  0.09090909       0.006
   0.18181818  0.09090909  0.09090909       0.012
   0.27272727  0.09090909  0.09090909       0.012
   0.36363636  0.09090909  0.09090909       0.012
  -0.09090909  0.09090909  0.09090909       0.003
   0.18181818  0.18181818  0.09090909       0.006
   0.27272727  0.18181818  0.09090909       0.012
   0.36363636  0.18181818  0.09090909       0.012
   0.45454545  0.18181818  0.09090909       0.012
  -0.45454545  0.18181818  0.09090909       0.012
  -0.36363636  0.18181818  0.09090909       0.006
  -0.18181818  0.18181818  0.09090909       0.006
  -0.09090909  0.18181818  0.09090909       0.006
   0.27272727  0.27272727  0.09090909       0.006
   0.36363636  0.27272727  0.09090909       0.012
   0.45454545  0.27272727  0.09090909       0.012
  -0.45454545  0.27272727  0.09090909       0.006
  -0.27272727  0.27272727  0.09090909       0.006
  -0.18181818  0.27272727  0.09090909       0.012
  -0.09090909  0.27272727  0.09090909       0.006
   0.36363636  0.36363636  0.09090909       0.006
   0.45454545  0.36363636  0.09090909       0.006
  -0.36363636  0.36363636  0.09090909       0.006
  -0.27272727  0.36363636  0.09090909       0.012
[...]
  -0.27272727  0.45454545  0.27272727       0.006
  -0.45454545 -0.45454545  0.27272727       0.006
  -0.36363636 -0.45454545  0.27272727       0.012
  -0.27272727 -0.45454545  0.27272727       0.006
  -0.36363636 -0.36363636  0.27272727       0.006
  -0.27272727 -0.36363636  0.27272727       0.006
  -0.27272727 -0.27272727  0.27272727       0.002
  -0.36363636  0.36363636  0.36363636       0.003
  -0.45454545  0.45454545  0.36363636       0.006
  -0.36363636  0.45454545  0.36363636       0.006
  -0.45454545 -0.45454545  0.36363636       0.006
  -0.36363636 -0.45454545  0.36363636       0.006
  -0.36363636 -0.36363636  0.36363636       0.002
  -0.45454545  0.45454545  0.45454545       0.003
  -0.45454545 -0.45454545  0.45454545       0.002

 position of ions in fractional coordinates (direct lattice)
   0.25000000  0.75000000  0.50000000
   0.00000000  0.00000000  0.00000000

 position of ions in cartesian coordinates  (Angst):
   2.45000000  0.00000000  0.63700000
   0.00000000  0.00000000  0.00000000

 k-point  1 :   0.0000 0.0000 0.0000  plane waves:     351
 k-point  2 :   0.0909-0.0000 0.0000  plane waves:     353
 k-point  3 :   0.1818-0.0000 0.0000  plane waves:     358
 k-point  4 :   0.2727-0.0000 0.0000  plane waves:     362
 k-point  5 :   0.3636-0.0000 0.0000  plane waves:     358
 k-point  6 :   0.4545-0.0000-0.0000  plane waves:     363
 k-point  7 :   0.0909 0.0909 0.0000  plane waves:     361
 k-point  8 :   0.1818 0.0909-0.0000  plane waves:     358
 k-point  9 :   0.2727 0.0909 0.0000  plane waves:     358
 k-point 10 :   0.3636 0.0909 0.0000  plane waves:     356
 k-point 11 :   0.4545 0.0909-0.0000  plane waves:     361
 k-point 12 :  -0.4545 0.0909-0.0000  plane waves:     358
 k-point 13 :  -0.3636 0.0909 0.0000  plane waves:     361
 k-point 14 :  -0.2727 0.0909 0.0000  plane waves:     360
 k-point 15 :  -0.1818 0.0909 0.0000  plane waves:     362
 k-point 16 :  -0.0909 0.0909 0.0000  plane waves:     357
 k-point 17 :   0.1818 0.1818 0.0000  plane waves:     354
 k-point 18 :   0.2727 0.1818 0.0000  plane waves:     358
 k-point 19 :   0.3636 0.1818-0.0000  plane waves:     360
 k-point 20 :   0.4545 0.1818-0.0000  plane waves:     359
 k-point 21 :  -0.4545 0.1818-0.0000  plane waves:     359
 k-point 22 :  -0.3636 0.1818 0.0000  plane waves:     364
 k-point 23 :  -0.2727 0.1818-0.0000  plane waves:     365
 k-point 24 :  -0.1818 0.1818 0.0000  plane waves:     358
 k-point 25 :   0.2727 0.2727-0.0000  plane waves:     361
 k-point 26 :   0.3636 0.2727-0.0000  plane waves:     363
 k-point 27 :   0.4545 0.2727 0.0000  plane waves:     363
 k-point 28 :  -0.4545 0.2727 0.0000  plane waves:     362
 k-point 29 :  -0.3636 0.2727-0.0000  plane waves:     366
 k-point 30 :  -0.2727 0.2727-0.0000  plane waves:     372
 k-point 31 :   0.3636 0.3636 0.0000  plane waves:     363
 k-point 32 :   0.4545 0.3636-0.0000  plane waves:     362
 k-point 33 :  -0.4545 0.3636-0.0000  plane waves:     368
 k-point 34 :  -0.3636 0.3636 0.0000  plane waves:     376
 k-point 35 :   0.4545 0.4545-0.0000  plane waves:     365
 k-point 36 :  -0.4545 0.4545-0.0000  plane waves:     376
 k-point 37 :   0.0909 0.0909 0.0909  plane waves:     361
 k-point 38 :   0.1818 0.0909 0.0909  plane waves:     365
 k-point 39 :   0.2727 0.0909 0.0909  plane waves:     358
 k-point 40 :   0.3636 0.0909 0.0909  plane waves:     360
 k-point 41 :  -0.0909 0.0909 0.0909  plane waves:     365
 k-point 42 :   0.1818 0.1818 0.0909  plane waves:     362
 k-point 43 :   0.2727 0.1818 0.0909  plane waves:     357
 k-point 44 :   0.3636 0.1818 0.0909  plane waves:     358
 k-point 45 :   0.4545 0.1818 0.0909  plane waves:     358
 k-point 46 :  -0.4545 0.1818 0.0909  plane waves:     360
 k-point 47 :  -0.3636 0.1818 0.0909  plane waves:     364
 k-point 48 :  -0.1818 0.1818 0.0909  plane waves:     358
 k-point 49 :  -0.0909 0.1818 0.0909  plane waves:     366
 k-point 50 :   0.2727 0.2727 0.0909  plane waves:     359
 k-point 51 :   0.3636 0.2727 0.0909  plane waves:     358
 k-point 52 :   0.4545 0.2727 0.0909  plane waves:     362
 k-point 53 :  -0.4545 0.2727 0.0909  plane waves:     362
 k-point 54 :  -0.2727 0.2727 0.0909  plane waves:     361
 k-point 55 :  -0.1818 0.2727 0.0909  plane waves:     363
 k-point 56 :  -0.0909 0.2727 0.0909  plane waves:     358
 k-point 57 :   0.3636 0.3636 0.0909  plane waves:     360
 k-point 58 :   0.4545 0.3636 0.0909  plane waves:     364
 k-point 59 :  -0.3636 0.3636 0.0909  plane waves:     368
 k-point 60 :  -0.2727 0.3636 0.0909  plane waves:     367
[...]
 k-point 85 :  -0.1818 0.1818 0.1818  plane waves:     369
 k-point 86 :   0.2727 0.2727 0.1818  plane waves:     356
 k-point 87 :   0.3636 0.2727 0.1818  plane waves:     358
 k-point 88 :  -0.2727 0.2727 0.1818  plane waves:     366
 k-point 89 :  -0.1818 0.2727 0.1818  plane waves:     365
 k-point 90 :  -0.3636 0.3636 0.1818  plane waves:     365
 k-point 91 :  -0.2727 0.3636 0.1818  plane waves:     362
 k-point 92 :  -0.1818 0.3636 0.1818  plane waves:     360
 k-point 93 :  -0.4545 0.4545 0.1818  plane waves:     362
 k-point 94 :  -0.3636 0.4545 0.1818  plane waves:     361
 k-point 95 :  -0.2727 0.4545 0.1818  plane waves:     364
 k-point 96 :  -0.1818 0.4545 0.1818  plane waves:     363
 k-point 97 :  -0.4545-0.4545 0.1818  plane waves:     362
 k-point 98 :  -0.3636-0.4545 0.1818  plane waves:     363
 k-point 99 :  -0.2727-0.4545 0.1818  plane waves:     357
 k-point ** :  -0.1818-0.4545 0.1818  plane waves:     356
 k-point ** :  -0.3636-0.3636 0.1818  plane waves:     361
 k-point ** :  -0.2727-0.3636 0.1818  plane waves:     359
 k-point ** :  -0.1818-0.3636 0.1818  plane waves:     353
 k-point ** :  -0.2727-0.2727 0.1818  plane waves:     358
 k-point ** :  -0.1818-0.2727 0.1818  plane waves:     344
 k-point ** :  -0.1818-0.1818 0.1818  plane waves:     363
 k-point ** :  -0.2727 0.2727 0.2727  plane waves:     361
 k-point ** :  -0.3636 0.3636 0.2727  plane waves:     362
 k-point ** :  -0.2727 0.3636 0.2727  plane waves:     362
 k-point ** :  -0.4545 0.4545 0.2727  plane waves:     362
 k-point ** :  -0.3636 0.4545 0.2727  plane waves:     364
 k-point ** :  -0.2727 0.4545 0.2727  plane waves:     361
 k-point ** :  -0.4545-0.4545 0.2727  plane waves:     363
 k-point ** :  -0.3636-0.4545 0.2727  plane waves:     364
 k-point ** :  -0.2727-0.4545 0.2727  plane waves:     361
 k-point ** :  -0.3636-0.3636 0.2727  plane waves:     365
 k-point ** :  -0.2727-0.3636 0.2727  plane waves:     360
 k-point ** :  -0.2727-0.2727 0.2727  plane waves:     364
 k-point ** :  -0.3636 0.3636 0.3636  plane waves:     361
 k-point ** :  -0.4545 0.4545 0.3636  plane waves:     364
 k-point ** :  -0.3636 0.4545 0.3636  plane waves:     364
 k-point ** :  -0.4545-0.4545 0.3636  plane waves:     364
 k-point ** :  -0.3636-0.4545 0.3636  plane waves:     365
 k-point ** :  -0.3636-0.3636 0.3636  plane waves:     360
 k-point ** :  -0.4545 0.4545 0.4545  plane waves:     361
 k-point ** :  -0.4545-0.4545 0.4545  plane waves:     364

 maximum and minimum number of plane-waves per node :       376      344

 maximum number of plane-waves:       376
 maximum index in each direction:
   IXMAX=    5   IYMAX=    5   IZMAX=    5
   IXMIN=   -5   IYMIN=   -5   IZMIN=   -5

 serial   3D FFT for wavefunctions
 parallel 3D FFT for charge:
    minimum data exchange during FFTs selected (reduces bandwidth)

 Broyden mixing: mesh for mixing (old mesh)
   NGX = 11   NGY = 11   NGZ = 11
  (NGX  = 32   NGY  = 32   NGZ  = 32)
  gives a total of   1331 points

 charge density for first step will be calculated from the start-wavefunctions

 Maximum index for augmentation-charges          547 (set IRDMAX)

 initial charge from wavefunction
 First call to EWALD:  gamma=   0.567
 Maximum number of real-space cells 4x 4x 3
 Maximum number of reciprocal cells 3x 3x 3

--------------------------------------- Iteration      1(   1)  ---------------------------------------

 eigenvalue-minimisations  :  1040
 total energy-change (2. order) :-0.1024314E+02  (-0.3019965E-05)
 number of electron       7.9999991 magnetization
 augmentation part       -0.4735694 magnetization

 Broyden mixing:
  rms(total) = 0.31324E-03    rms(broyden)= 0.31324E-03
  rms(prec ) = 0.94174E-03
  weight for this iteration     100.00

 Free energy of the ion-electron system (eV)
  alpha Z        PSCENC =         4.40202223
  Ewald energy   TEWEN  =      -265.18101312
  -Hartree energ DENC   =        -2.49669771
  -exchange      EXHF   =         0.00000000
  -V(xc)+E(xc)   XCENC  =       -17.58046967
  PAW double counting   =        70.33568627      -35.24895218
  entropy T*S    EENTRO =        -0.01568441
  eigenvalues    EBANDS =        29.41228125
  atomic energy  EATOM  =       206.12968587
  Solvation  Ediel_sol  =         0.00000000
  free energy    TOTEN  =       -10.24314146 eV

  energy without entropy =      -10.22745705  energy(sigma->0) =      -10.23529925

--------------------------------------- Iteration      1(   2)  ---------------------------------------

 eigenvalue-minimisations  :  1016
 total energy-change (2. order) : 0.1687039E-06  (-0.1532115E-06)
 number of electron       7.9999991 magnetization
 augmentation part       -0.4735694 magnetization

 Free energy of the ion-electron system (eV)
  alpha Z        PSCENC =         4.40202223
  Ewald energy   TEWEN  =      -265.18101312
  -Hartree energ DENC   =        -2.49686070
  -exchange      EXHF   =         0.00000000
  -V(xc)+E(xc)   XCENC  =       -17.58046001
  PAW double counting   =        70.33581305      -35.24908508
  entropy T*S    EENTRO =        -0.01568248
  eigenvalues    EBANDS =        29.41243895
  atomic energy  EATOM  =       206.12968587
  Solvation  Ediel_sol  =         0.00000000
  free energy    TOTEN  =       -10.24314129 eV

  energy without entropy =      -10.22745880  energy(sigma->0) =      -10.23530005

 average (electrostatic) potential at core
  the test charge radii are     0.9892
  (the norm of the test charge is              1.0000)
       1 -80.5500       2 -80.5500

 E-fermi :   9.1081     XC(G=0): -10.8916     alpha+bet :-15.6819

 k-point     1 :       0.0000    0.0000    0.0000
  band No.  band energies     occupation
      1      -4.6157      2.00000
      2       6.1826      2.00000
      3       6.2986      2.00000
      4       6.2986      2.00000
      5      10.5259      0.00000
      6      16.7725      0.00000
      7      17.3667      0.00000
      8      17.3667      0.00000

[...]

 k-point   126 :      -0.4545   -0.4545    0.4545
  band No.  band energies     occupation
      1       0.6283      2.00000
      2       0.6368      2.00000
      3       2.4587      2.00000
      4       2.4587      2.00000
      5      12.9298      0.00000
      6      19.6154      0.00000
      7      20.9234      0.00000
      8      21.0380      0.00000

 soft charge-density along one line, spin component           1
         0         1         2         3         4         5         6         7         8         9
 total charge-density along one line

------------------------ aborting loop because EDIFF is reached ----------------------------------------

  FORCE on cell =-STRESS in cart. coord.  units (eV):
  Direction    XX          YY          ZZ          XY          YZ          ZX
  Alpha Z     4.40202     4.40202     4.40202
  Ewald     -90.96023   -90.96023   -83.26083    -0.00000     0.00000     0.00000
  Hartree     0.55298     0.55298     1.39112    -0.00000    -0.00000    -0.00000
  E(xc)     -25.41970   -25.41970   -25.37690     0.00001     0.00000     0.00000
  Local     -11.17490   -11.17490   -17.47129    -0.00005    -0.00003    -0.00003
  n-local    77.00879    76.78559    76.52638     1.07335    -0.33207    -0.45576
  augment   -12.08719   -12.08719   -11.98749     0.00003     0.00003     0.00003
  Kinetic    59.78480    54.95717    56.67972     3.70498    -1.71772    -3.37039
  Fock        0.00000     0.00000     0.00000     0.00000     0.00000     0.00000
  Total      -0.41885    -0.41885     0.90272    -0.00000     0.00000     0.00000
  in kB     -21.93831   -21.93831    47.28263    -0.00000     0.00000     0.00000

 VOLUME and BASIS-vectors are now :
  energy-cutoff  :      300.00
  volume of cell :       30.59
      direct lattice vectors                 reciprocal lattice vectors
    -2.450000000  2.450000000  1.274000000     0.000000000  0.204081633  0.392464678
     2.450000000 -2.450000000  1.274000000     0.204081633  0.000000000  0.392464678
     2.450000000  2.450000000 -1.274000000     0.204081633  0.204081633 -0.000000000

  length of vectors
     3.691622408  3.691622408  3.691622408     0.442354876  0.442354876  0.288615013

 FORCES acting on ions
    electron-ion (+dipol)            ewald-force                    non-local-force                 convergence-correction
   0.457E-06 -.457E-06 -.194E-13   0.198E-14 0.156E-15 0.342E-17   0.279E-17 0.973E-17 -.103E-17   0.557E-09 -.557E-09 0.144E-16
   -.457E-06 0.457E-06 0.602E-14   -.185E-14 0.943E-16 0.891E-15   -.125E-16 0.187E-16 0.192E-17   -.557E-09 0.557E-09 -.192E-16
   0.870E-14 0.699E-14 -.134E-13   0.139E-15 0.250E-15 0.894E-15   -.971E-17 0.284E-16 0.888E-18   0.100E-15 0.127E-15 -.478E-17

 POSITION                                       TOTAL-FORCE (eV/Angst)
      2.45000      0.00000      0.63700        -0.000000     -0.000000      0.000000
      0.00000      0.00000      0.00000         0.000000      0.000000     -0.000000
    total drift:                                0.000000      0.000000     -0.000000

  FREE ENERGIE OF THE ION-ELECTRON SYSTEM (eV)
  free  energy   TOTEN  =       -10.24314129 eV

  energy  without entropy=      -10.22745880  energy(sigma->0) =      -10.23530005

 reached required accuracy - stopping structural energy minimisation
 writing wavefunctions