 vasp.5.4.4.18Apr17-6-g9f103f2a35 (build Dec 09 2018 21:25:21) complex

 executed on IFC18.0.1.163_CrayMP date 2019.03.20  09:29:40

 INCAR:
 POTCAR:   PAW_PBE Si 05Jan2001

 POTCAR:   PAW_PBE Si 05Jan2001
   VRHFIN =Si: s2p2

   TITEL  = PAW_PBE Si 05Jan2001
   POMASS =   28.085; ZVAL   =    4.000    mass and valenz
   ENMAX  =  245.345; ENMIN  =  184.009 eV
   QCUT   =   -4.246; QGAM   =    8.493    optimization parameters

   Description
     l     E      TYP  RCUT    TYP  RCUT
     0   .000     23  1.900
     0   .000     23  1.900
     1   .000     23  1.900
     1   .000     23  1.900
     2   .000      7  1.900

 PAW_PBE Si 05Jan2001                   :

 POSCAR: Si2
  positions in direct lattice
 exchange correlation table for  LEXCH =        8
   RHO(1)=    0.500       N(1)  =     2000
   RHO(2)=  100.500       N(2)  =     4000

 ion  position               nearest neighbor table
   1  0.250  0.750  0.500-   2 2.53   2 2.53   2 2.53   2 2.53   2 3.11   2 3.11   2 3.11   2 3.11

   2  0.000  0.000  0.000-   1 2.53   1 2.53   1 2.53   1 2.53   1 3.11   1 3.11   1 3.11   1 3.11

  LATTYP: Found a body centered tetragonal cell.
 ALAT       =     4.9000000000
 C/A-ratio  =     0.5200000000

  Lattice vectors:

 A1 = (  -2.4500000000,   2.4500000000,   1.2740000000)
 A2 = (   2.4500000000,  -2.4500000000,   1.2740000000)
 A3 = (   2.4500000000,   2.4500000000,  -1.2740000000)

Analysis of symmetry for initial positions (statically):
 Subroutine PRICEL returns:
 Original cell was already a primitive cell.

 Routine SETGRP: Setting up the symmetry group for a
 body centered tetragonal supercell.

 Subroutine GETGRP returns: Found 16 space group operations
 (whereof  8 operations were pure point group operations)
 out of a pool of 16 trial point group operations.

The static configuration has the point symmetry D_2d.
 The point group associated with its full space group is D_4h.

Analysis of symmetry for dynamics (positions and initial velocities):
 Subroutine PRICEL returns:
 Original cell was already a primitive cell.

 Routine SETGRP: Setting up the symmetry group for a
 body centered tetragonal supercell.

 Subroutine GETGRP returns: Found 16 space group operations
 (whereof  8 operations were pure point group operations)
 out of a pool of 16 trial point group operations.

The dynamic configuration has the point symmetry D_2d.
 The point group associated with its full space group is D_4h.

 Subroutine INISYM returns: Found 16 space group operations
 (whereof  8 operations are pure point group operations),
 and found     1 'primitive' translations

 KPOINTS: Automatic kpoint scheme

Automatic generation of k-mesh.
Space group operators:
 irot       det(A)        alpha          n_x          n_y          n_z        tau_x        tau_y        tau_z
    1     1.000000     0.000000     1.000000     0.000000     0.000000     0.000000     0.000000     0.000000
    2    -1.000000    90.000000    -0.000000    -0.000000    -1.000000     0.000000     0.000000     0.000000
    3     1.000000   180.000000    -0.000000    -0.000000    -1.000000     0.000000     0.000000     0.000000
    4    -1.000000    90.000000    -0.000000     0.000000     1.000000     0.000000     0.000000     0.000000
    5    -1.000000   180.000000     0.000000    -1.000000     0.000000     0.000000     0.000000     0.000000
    6     1.000000   180.000000     0.707107     0.707107    -0.000000     0.000000     0.000000     0.000000
    7    -1.000000   180.000000     1.000000     0.000000     0.000000     0.000000     0.000000     0.000000
    8     1.000000   180.000000     0.707107    -0.707107     0.000000     0.000000     0.000000     0.000000
    9    -1.000000     0.000000     1.000000     0.000000     0.000000     0.250000     0.750000     0.500000
   10     1.000000    90.000000    -0.000000    -0.000000    -1.000000     0.250000     0.750000     0.500000
   11    -1.000000   180.000000    -0.000000    -0.000000    -1.000000     0.250000     0.750000     0.500000
   12     1.000000    90.000000    -0.000000     0.000000     1.000000     0.250000     0.750000     0.500000
   13     1.000000   180.000000     0.000000    -1.000000     0.000000     0.250000     0.750000     0.500000
   14    -1.000000   180.000000     0.707107     0.707107    -0.000000     0.250000     0.750000     0.500000
   15     1.000000   180.000000     1.000000     0.000000     0.000000     0.250000     0.750000     0.500000
   16    -1.000000   180.000000     0.707107    -0.707107     0.000000     0.250000     0.750000     0.500000

 Subroutine IBZKPT returns following result:

 Found     40 irreducible k-points:

 Following reciprocal coordinates:
            Coordinates               Weight
  0.000000  0.000000  0.000000      1.000000
  0.142857 -0.000000  0.000000      8.000000
  0.285714 -0.000000  0.000000      8.000000
  0.428571 -0.000000  0.000000      8.000000
  0.142857  0.142857  0.000000      8.000000
  0.285714  0.142857  0.000000     16.000000
  0.428571  0.142857  0.000000     16.000000
 -0.428571  0.142857 -0.000000     16.000000
 -0.285714  0.142857 -0.000000     16.000000
 -0.142857  0.142857 -0.000000      4.000000
  0.285714  0.285714  0.000000      8.000000
  0.428571  0.285714  0.000000     16.000000
 -0.428571  0.285714 -0.000000     16.000000
 -0.285714  0.285714 -0.000000      4.000000
  0.428571  0.428571  0.000000      8.000000
 -0.428571  0.428571  0.000000      4.000000
  0.142857  0.142857  0.142857      8.000000
  0.285714  0.142857  0.142857     16.000000
 -0.142857  0.142857  0.142857      4.000000
  0.285714  0.285714  0.142857      8.000000
  0.428571  0.285714  0.142857      8.000000
 -0.285714  0.285714  0.142857      8.000000
 -0.142857  0.285714  0.142857      8.000000
 -0.428571  0.428571  0.142857      8.000000
 -0.285714  0.428571  0.142857     16.000000
 -0.142857  0.428571  0.142857      8.000000
 -0.428571 -0.428571  0.142857      8.000000
 -0.285714 -0.428571  0.142857     16.000000
 -0.142857 -0.428571  0.142857      8.000000
 -0.285714 -0.285714  0.142857      8.000000
 -0.142857 -0.285714  0.142857      8.000000
 -0.142857 -0.142857  0.142857      2.000000
 -0.285714  0.285714  0.285714      4.000000
 -0.428571  0.428571  0.285714      8.000000
 -0.285714  0.428571  0.285714      8.000000
 -0.428571 -0.428571  0.285714      8.000000
 -0.285714 -0.428571  0.285714      8.000000
 -0.285714 -0.285714  0.285714      2.000000
 -0.428571  0.428571  0.428571      4.000000
 -0.428571 -0.428571  0.428571      2.000000

 Following cartesian coordinates:
            Coordinates               Weight
  0.000000  0.000000  0.000000      1.000000
  0.000000  0.029155  0.056066      8.000000
  0.000000  0.058309  0.112133      8.000000
  0.000000  0.087464  0.168199      8.000000
  0.029155  0.029155  0.112133      8.000000
  0.029155  0.058309  0.168199     16.000000
  0.029155  0.087464  0.224266     16.000000
  0.029155 -0.087464 -0.112133     16.000000
  0.029155 -0.058309 -0.056066     16.000000
  0.029155 -0.029155  0.000000      4.000000
  0.058309  0.058309  0.224266      8.000000
  0.058309  0.087464  0.280332     16.000000
  0.058309 -0.087464 -0.056066     16.000000
  0.058309 -0.058309  0.000000      4.000000
  0.087464  0.087464  0.336398      8.000000
  0.087464 -0.087464  0.000000      4.000000
  0.058309  0.058309  0.112133      8.000000
  0.058309  0.087464  0.168199     16.000000
  0.058309 -0.000000 -0.000000      4.000000
  0.087464  0.087464  0.224266      8.000000
  0.087464  0.116618  0.280332      8.000000
  0.087464 -0.029155 -0.000000      8.000000
  0.087464  0.000000  0.056066      8.000000
  0.116618 -0.058309  0.000000      8.000000
  0.116618 -0.029155  0.056066     16.000000
  0.116618  0.000000  0.112133      8.000000
 -0.058309 -0.058309 -0.336398      8.000000
 -0.058309 -0.029155 -0.280332     16.000000
 -0.058309  0.000000 -0.224266      8.000000
 -0.029155 -0.029155 -0.224266      8.000000
 -0.029155 -0.000000 -0.168199      8.000000
  0.000000  0.000000 -0.112133      2.000000
  0.116618  0.000000 -0.000000      4.000000
  0.145773 -0.029155  0.000000      8.000000
  0.145773  0.000000  0.056066      8.000000
 -0.029155 -0.029155 -0.336398      8.000000
 -0.029155  0.000000 -0.280332      8.000000
  0.000000  0.000000 -0.224266      2.000000
  0.174927 -0.000000  0.000000      4.000000
 -0.000000  0.000000 -0.336398      2.000000

 SYSTEM =  unknown system
 POSCAR =  Si2

 Startparameter for this run:
   NWRITE =      2    write-flag & timer
   PREC   = normal    normal or accurate (medium, high low for compatibility)
   ISTART =      0    job   : 0-new  1-cont  2-samecut
   ICHARG =      2    charge: 1-file 2-atom 10-const
   ISPIN  =      1    spin polarized calculation?
   LNONCOLLINEAR =      F non collinear calculations
   LSORBIT =      F    spin-orbit coupling
   INIWAV =      1    electr: 0-lowe 1-rand  2-diag
   LASPH  =      F    aspherical Exc in radial PAW
   METAGGA=      F    non-selfconsistent MetaGGA calc.

 Electronic Relaxation 1
   ENCUT  =  300.0 eV  22.05 Ry    4.70 a.u.   5.21  5.21  5.21*2*pi/ulx,y,z
   ENINI  =  300.0     initial cutoff
   ENAUG  =  322.1 eV  augmentation charge cutoff
   NELM   =     60;   NELMIN=  2; NELMDL= -5     # of ELM steps
   EDIFF  = 0.4E-03   stopping-criterion for ELM
   LREAL  =      F    real-space projection
   NLSPLINE    = F    spline interpolate recip. space projectors
   LCOMPAT=      F    compatible to vasp.4.4
   GGA_COMPAT  = T    GGA compatible to vasp.4.4-vasp.4.6
   LMAXPAW     = -100 max onsite density
   LMAXMIX     =    2 max onsite mixed and CHGCAR
   VOSKOWN=      0    Vosko Wilk Nusair interpolation
   ROPT   =    0.00000
 Ionic relaxation
   EDIFFG = -.1E-01   stopping-criterion for IOM
   NSW    =     15    number of steps for IOM
   NBLOCK =      1;   KBLOCK =     15    inner block; outer block
   IBRION =      2    ionic relax: 0-MD 1-quasi-New 2-CG
   NFREE  =      1    steps in history (QN), initial steepest desc. (CG)
   ISIF   =      3    stress and relaxation
   IWAVPR =     11    prediction:  0-non 1-charg 2-wave 3-comb
   ISYM   =      2    0-nonsym 1-usesym 2-fastsym
   LCORR  =      T    Harris-Foulkes like correction to forces

   POTIM  = 0.5000    time-step for ionic-motion
   TEIN   =    0.0    initial temperature
   TEBEG  =    0.0;   TEEND  =   0.0 temperature during run
   SMASS  =  -3.00    Nose mass-parameter (am)
   estimated Nose-frequenzy (Omega)   =  0.10E-29 period in steps =****** mass=  -0.311E-27a.u.
   SCALEE = 1.0000    scale energy and forces
   NPACO  =    256;   APACO  = 16.0  distance and # of slots for P.C.
   PSTRESS=    0.0 pullay stress

  Mass of Ions in am
   POMASS =  28.09
  Ionic Valenz
   ZVAL   =   4.00
  Atomic Wigner-Seitz radii
  virtual crystal weights
   VCA    =   1.00
   NELECT =       8.0000    total number of electrons
   NUPDOWN=      -1.0000    fix difference up-down

 DOS related values:
   EMIN   =  10.00;   EMAX   =-10.00  energy-range for DOS
   EFERMI =   0.00
   ISMEAR =     0;   SIGMA  =   0.20  broadening in eV -4-tet -1-fermi 0-gaus

 Electronic relaxation 2 (details)
   IALGO  =     38    algorithm
[...]
   0.17492711 -0.00000000 -0.00000000       0.012
   0.00000000 -0.00000000 -0.33639830       0.006

 k-points in reciprocal lattice and weights: Automatic kpoint scheme
   0.00000000  0.00000000  0.00000000       0.003
   0.14285714 -0.00000000  0.00000000       0.023
   0.28571429 -0.00000000  0.00000000       0.023
   0.42857143 -0.00000000  0.00000000       0.023
   0.14285714  0.14285714  0.00000000       0.023
   0.28571429  0.14285714  0.00000000       0.047
   0.42857143  0.14285714  0.00000000       0.047
  -0.42857143  0.14285714 -0.00000000       0.047
  -0.28571429  0.14285714 -0.00000000       0.047
  -0.14285714  0.14285714 -0.00000000       0.012
   0.28571429  0.28571429  0.00000000       0.023
   0.42857143  0.28571429  0.00000000       0.047
  -0.42857143  0.28571429 -0.00000000       0.047
  -0.28571429  0.28571429 -0.00000000       0.012
   0.42857143  0.42857143  0.00000000       0.023
  -0.42857143  0.42857143  0.00000000       0.012
   0.14285714  0.14285714  0.14285714       0.023
   0.28571429  0.14285714  0.14285714       0.047
  -0.14285714  0.14285714  0.14285714       0.012
   0.28571429  0.28571429  0.14285714       0.023
   0.42857143  0.28571429  0.14285714       0.023
  -0.28571429  0.28571429  0.14285714       0.023
  -0.14285714  0.28571429  0.14285714       0.023
  -0.42857143  0.42857143  0.14285714       0.023
  -0.28571429  0.42857143  0.14285714       0.047
  -0.14285714  0.42857143  0.14285714       0.023
  -0.42857143 -0.42857143  0.14285714       0.023
  -0.28571429 -0.42857143  0.14285714       0.047
  -0.14285714 -0.42857143  0.14285714       0.023
  -0.28571429 -0.28571429  0.14285714       0.023
  -0.14285714 -0.28571429  0.14285714       0.023
  -0.14285714 -0.14285714  0.14285714       0.006
  -0.28571429  0.28571429  0.28571429       0.012
  -0.42857143  0.42857143  0.28571429       0.023
  -0.28571429  0.42857143  0.28571429       0.023
  -0.42857143 -0.42857143  0.28571429       0.023
  -0.28571429 -0.42857143  0.28571429       0.023
  -0.28571429 -0.28571429  0.28571429       0.006
  -0.42857143  0.42857143  0.42857143       0.012
  -0.42857143 -0.42857143  0.42857143       0.006

 position of ions in fractional coordinates (direct lattice)
   0.25000000  0.75000000  0.50000000
   0.00000000  0.00000000  0.00000000

 position of ions in cartesian coordinates  (Angst):
   2.45000000  0.00000000  0.63700000
   0.00000000  0.00000000  0.00000000

 k-point  1 :   0.0000 0.0000 0.0000  plane waves:     351
 k-point  2 :   0.1429-0.0000 0.0000  plane waves:     358
 k-point  3 :   0.2857-0.0000 0.0000  plane waves:     362
 k-point  4 :   0.4286-0.0000 0.0000  plane waves:     363
 k-point  5 :   0.1429 0.1429 0.0000  plane waves:     358
 k-point  6 :   0.2857 0.1429 0.0000  plane waves:     356
 k-point  7 :   0.4286 0.1429 0.0000  plane waves:     361
 k-point  8 :  -0.4286 0.1429-0.0000  plane waves:     359
 k-point  9 :  -0.2857 0.1429-0.0000  plane waves:     366
 k-point 10 :  -0.1429 0.1429-0.0000  plane waves:     364
 k-point 11 :   0.2857 0.2857 0.0000  plane waves:     361
 k-point 12 :   0.4286 0.2857 0.0000  plane waves:     363
 k-point 13 :  -0.4286 0.2857-0.0000  plane waves:     364
 k-point 14 :  -0.2857 0.2857-0.0000  plane waves:     372
 k-point 15 :   0.4286 0.4286 0.0000  plane waves:     356
 k-point 16 :  -0.4286 0.4286 0.0000  plane waves:     376
 k-point 17 :   0.1429 0.1429 0.1429  plane waves:     365
 k-point 18 :   0.2857 0.1429 0.1429  plane waves:     358
 k-point 19 :  -0.1429 0.1429 0.1429  plane waves:     365
 k-point 20 :   0.2857 0.2857 0.1429  plane waves:     356
 k-point 21 :   0.4286 0.2857 0.1429  plane waves:     364
 k-point 22 :  -0.2857 0.2857 0.1429  plane waves:     364
 k-point 23 :  -0.1429 0.2857 0.1429  plane waves:     362
 k-point 24 :  -0.4286 0.4286 0.1429  plane waves:     367
 k-point 25 :  -0.2857 0.4286 0.1429  plane waves:     365
 k-point 26 :  -0.1429 0.4286 0.1429  plane waves:     360
 k-point 27 :  -0.4286-0.4286 0.1429  plane waves:     364
 k-point 28 :  -0.2857-0.4286 0.1429  plane waves:     359
 k-point 29 :  -0.1429-0.4286 0.1429  plane waves:     358
 k-point 30 :  -0.2857-0.2857 0.1429  plane waves:     354
 k-point 31 :  -0.1429-0.2857 0.1429  plane waves:     348
 k-point 32 :  -0.1429-0.1429 0.1429  plane waves:     363
 k-point 33 :  -0.2857 0.2857 0.2857  plane waves:     363
 k-point 34 :  -0.4286 0.4286 0.2857  plane waves:     362
 k-point 35 :  -0.2857 0.4286 0.2857  plane waves:     360
 k-point 36 :  -0.4286-0.4286 0.2857  plane waves:     367
 k-point 37 :  -0.2857-0.4286 0.2857  plane waves:     365
 k-point 38 :  -0.2857-0.2857 0.2857  plane waves:     364
 k-point 39 :  -0.4286 0.4286 0.4286  plane waves:     361
 k-point 40 :  -0.4286-0.4286 0.4286  plane waves:     364

 maximum and minimum number of plane-waves per node :       376      348

 maximum number of plane-waves:       376
 maximum index in each direction:
   IXMAX=    5   IYMAX=    5   IZMAX=    5
   IXMIN=   -5   IYMIN=   -5   IZMIN=   -5

 serial   3D FFT for wavefunctions
 parallel 3D FFT for charge:
    minimum data exchange during FFTs selected (reduces bandwidth)

 Broyden mixing: mesh for mixing (old mesh)
   NGX = 11   NGY = 11   NGZ = 11
  (NGX  = 32   NGY  = 32   NGZ  = 32)
  gives a total of   1331 points

 initial charge density was supplied:
 charge density of overlapping atoms calculated
 number of electron       8.0000000 magnetization
 keeping initial charge density in first step

 Maximum index for augmentation-charges          547 (set IRDMAX)

 First call to EWALD:  gamma=   0.567
 Maximum number of real-space cells 4x 4x 3
 Maximum number of reciprocal cells 3x 3x 3

--------------------------------------- Iteration      1(   1)  ---------------------------------------

 eigenvalue-minimisations  :   640
 total energy-change (2. order) :-0.1332595E+00  (-0.2573523E+03)
 number of electron       8.0000000 magnetization
 augmentation part        8.0000000 magnetization

 Free energy of the ion-electron system (eV)
  alpha Z        PSCENC =         4.40202223
  Ewald energy   TEWEN  =      -265.18101312
  -Hartree energ DENC   =        -2.30415367
  -exchange      EXHF   =         0.00000000
  -V(xc)+E(xc)   XCENC  =       -17.81548033
  PAW double counting   =        65.95520812      -30.76852678
  entropy T*S    EENTRO =        -0.00733441
  eigenvalues    EBANDS =        39.45633257
  atomic energy  EATOM  =       206.12968587
  Solvation  Ediel_sol  =         0.00000000
  free energy    TOTEN  =        -0.13325952 eV

  energy without entropy =       -0.12592511  energy(sigma->0) =       -0.12959231

[...]

 Broyden mixing:
  rms(total) = 0.14876E+00    rms(broyden)= 0.14876E+00
  rms(prec ) = 0.33294E+00
  weight for this iteration     100.00

[...]

 eigenvalue-minimisations  :   824
 total energy-change (2. order) : 0.4570093E-02  (-0.1728779E-03)
 number of electron       7.9999991 magnetization
 augmentation part       -0.4721487 magnetization

[...]

 eigenvalues of (default mixing * dielectric matrix)
  average eigenvalue GAMMA=   2.6702
  2.6702

[...]

 average (electrostatic) potential at core
  the test charge radii are     0.9892
  (the norm of the test charge is              1.0000)
       1 -80.5440       2 -80.5440

 E-fermi :   8.9888     XC(G=0): -10.8917     alpha+bet :-15.6819

 k-point     1 :       0.0000    0.0000    0.0000
  band No.  band energies     occupation
      1      -4.6155      2.00000
      2       6.1867      2.00000
      3       6.2979      2.00000
      4       6.2979      2.00000
      5      10.5233      0.00000
      6      16.7711      0.00000
      7      17.3666      0.00000
      8      17.3666      0.00000

[...]

 soft charge-density along one line, spin component           1
         0         1         2         3         4         5         6         7         8         9
 total charge-density along one line

------------------------ aborting loop because EDIFF is reached ----------------------------------------

  FORCE on cell =-STRESS in cart. coord.  units (eV):
  Direction    XX          YY          ZZ          XY          YZ          ZX
  Alpha Z     4.40202     4.40202     4.40202
  Ewald     -90.96023   -90.96023   -83.26083    -0.00000     0.00000     0.00000
  Hartree     0.54825     0.54825     1.40422    -0.00000    -0.00000    -0.00000
  E(xc)     -25.42410   -25.42410   -25.37684     0.00001     0.00000     0.00000
  Local     -11.14213   -11.14213   -17.60011    -0.00005    -0.00003    -0.00003
  n-local    77.02866    77.08981    76.55305     0.89728    -0.23417    -0.44555
  augment   -12.09381   -12.09381   -12.06968     0.00003     0.00003     0.00003
  Kinetic    60.75921    53.00667    57.60339     3.80854    -1.25459    -3.57553
  Fock        0.00000     0.00000     0.00000     0.00000     0.00000     0.00000
  Total      -0.72782    -0.72782     1.65521    -0.00000     0.00000    -0.00000
  in kB     -38.12200   -38.12200    86.69681    -0.00000     0.00000    -0.00000

 VOLUME and BASIS-vectors are now :
  energy-cutoff  :      300.00
  volume of cell :       30.59
      direct lattice vectors                 reciprocal lattice vectors
    -2.450000000  2.450000000  1.274000000     0.000000000  0.204081633  0.392464678
     2.450000000 -2.450000000  1.274000000     0.204081633  0.000000000  0.392464678
     2.450000000  2.450000000 -1.274000000     0.204081633  0.204081633 -0.000000000

[...]

 FORCES acting on ions
    electron-ion (+dipol)            ewald-force                    non-local-force                 convergence-correction
   0.404E-06 -.404E-06 -.105E-13   0.198E-14 0.156E-15 0.342E-17   0.189E-16 -.363E-17 0.103E-17   -.568E-08 0.568E-08 0.235E-16
   -.404E-06 0.404E-06 -.141E-13   -.185E-14 0.943E-16 0.891E-15   -.162E-16 0.806E-17 -.301E-19   0.568E-08 -.568E-08 0.410E-16
   0.666E-14 0.607E-14 -.247E-13   0.139E-15 0.250E-15 0.894E-15   0.269E-17 0.442E-17 0.996E-18   0.447E-16 -.156E-16 0.645E-16

 POSITION                                       TOTAL-FORCE (eV/Angst)
      2.45000      0.00000      0.63700         0.000000      0.000000     -0.000000
      0.00000      0.00000      0.00000        -0.000000     -0.000000      0.000000
    total drift:                                0.000000      0.000000     -0.000000

  FREE ENERGIE OF THE ION-ELECTRON SYSTEM (eV)
  free  energy   TOTEN  =       -10.26131193 eV

  energy  without entropy=      -10.24504673  energy(sigma->0) =      -10.25317933

[...]

 eigenvalues of (default mixing * dielectric matrix)
  average eigenvalue GAMMA=   1.3354
  2.2274  0.4433

[...]

 d Force = 0.0000000E+00[ 0.000E+00, 0.000E+00]  d Energy = 0.4306183E-01-0.431E-01
 d Force = 0.0000000E+00[ 0.000E+00, 0.000E+00]  d Ewald  =-0.2185359E+00 0.219E+00

 Steepest descent step on ions:
 trial-energy change:   -0.043062  1 .order   -0.041509   -0.091642    0.008624
  (g-gl).g = 0.916E-01      g.g   = 0.916E-01  gl.gl    = 0.000E+00
 g(Force)  = 0.184E-46   g(Stress)= 0.916E-01 ortho     = 0.000E+00
 gamma     =   0.00000
 trial     =   1.00000
 opt step  =   0.91399  (harmonic =   0.91399) maximal distance =0.00000000
 next E    =   -10.303192   (d E  =  -0.04188)

[...]

 d Force = 0.0000000E+00[ 0.000E+00, 0.000E+00]  d Energy = 0.3352654E-03-0.335E-03
 d Force = 0.0000000E+00[ 0.000E+00, 0.000E+00]  d Ewald  = 0.2507439E-01-0.251E-01

[...]

 d Force = 0.0000000E+00[ 0.000E+00, 0.000E+00]  d Energy =-0.1895004E-03 0.190E-03
 d Force = 0.0000000E+00[ 0.000E+00, 0.000E+00]  d Ewald  = 0.8857706E-02-0.886E-02

[...]

 eigenvalue-minimisations  :   320
 total energy-change (2. order) : 0.1178194E-08  (-0.4144995E-10)
 number of electron       7.9999991 magnetization
 augmentation part       -0.4744030 magnetization

[...]

 Broyden mixing:
  rms(total) = 0.36809E-05    rms(broyden)= 0.34302E-05
  rms(prec ) = 0.10533E-04
  weight for this iteration     100.00

[...]

 Broyden mixing:
  rms(total) = 0.21715E-05    rms(broyden)= 0.17125E-05
  rms(prec ) = 0.52583E-05
  weight for this iteration     100.00
  WARNING: grid for Broyden might be to small

[...]

--------------------------------------- Iteration     15(   2)  ---------------------------------------

 eigenvalue-minimisations  :   320
 total energy-change (2. order) :-0.7062511E-09  (-0.2550365E-11)
 number of electron       7.9999991 magnetization
 augmentation part       -0.4744030 magnetization

 Free energy of the ion-electron system (eV)
  alpha Z        PSCENC =         4.38668881
  Ewald energy   TEWEN  =      -264.98755701
  -Hartree energ DENC   =        -2.46855455
  -exchange      EXHF   =         0.00000000
  -V(xc)+E(xc)   XCENC  =       -17.60092286
  PAW double counting   =        70.39308081      -35.30763327
  entropy T*S    EENTRO =        -0.01078694
  eigenvalues    EBANDS =        29.16140471
  atomic energy  EATOM  =       206.12968587
  Solvation  Ediel_sol  =         0.00000000
  free energy    TOTEN  =       -10.30459444 eV

  energy without entropy =      -10.29380750  energy(sigma->0) =      -10.29920097

 average (electrostatic) potential at core
  the test charge radii are     0.9892
  (the norm of the test charge is              1.0000)
       1 -80.5803       2 -80.5803

 E-fermi :   8.9599     XC(G=0): -10.8788     alpha+bet :-15.6273

[...]

 k-point    40 :      -0.4286   -0.4286    0.4286
  band No.  band energies     occupation
      1       1.1400      2.00000
      2       1.1759      2.00000
      3       2.7313      2.00000
      4       2.7313      2.00000
      5      10.1476      0.00000
      6      19.1243      0.00000
      7      20.5156      0.00000
      8      20.5156      0.00000

 soft charge-density along one line, spin component           1
         0         1         2         3         4         5         6         7         8         9
 total charge-density along one line

------------------------ aborting loop because EDIFF is reached ----------------------------------------

  FORCE on cell =-STRESS in cart. coord.  units (eV):
  Direction    XX          YY          ZZ          XY          YZ          ZX
  Alpha Z     4.38669     4.38669     4.38669
  Ewald     -88.01990   -88.01990   -88.94799    -0.00000     0.00000    -0.00000
  Hartree     0.75085     0.75085     0.96685    -0.00000    -0.00000    -0.00000
  E(xc)     -25.43056   -25.43056   -25.30563     0.00001     0.00000     0.00000
  Local     -14.20429   -14.20429   -11.50713    -0.00005    -0.00003    -0.00003
  n-local    77.54441    77.64050    75.42775     1.01347    -0.28239    -0.49135
  augment   -12.14051   -12.14051   -11.94464     0.00003     0.00003     0.00003
  Kinetic    60.69486    53.37559    56.92882     3.78583    -0.90337    -3.15380
  Fock        0.00000     0.00000     0.00000     0.00000     0.00000     0.00000
  Total      -0.03003    -0.03003     0.00472     0.00000     0.00000    -0.00000
  in kB      -1.56753    -1.56753     0.24655     0.00000     0.00000    -0.00000

 VOLUME and BASIS-vectors are now :
  energy-cutoff  :      300.00
  volume of cell :       30.70
      direct lattice vectors                 reciprocal lattice vectors
    -2.410687981  2.410687981  1.320489636     0.000000000  0.207409671  0.378647425
     2.410687981 -2.410687981  1.320489636     0.207409671  0.000000000  0.378647425
     2.410687981  2.410687981 -1.320489636     0.207409671  0.207409671  0.000000000

  length of vectors
     3.656025980  3.656025980  3.656025980     0.431732144  0.431732144  0.293321569

 FORCES acting on ions
    electron-ion (+dipol)            ewald-force                    non-local-force                 convergence-correction
   0.332E-06 -.332E-06 -.164E-13   0.199E-14 -.273E-14 0.162E-15   0.130E-17 0.186E-16 0.341E-17   -.477E-12 0.477E-12 -.607E-16
   -.332E-06 0.332E-06 -.486E-14   -.197E-14 0.309E-14 0.689E-15   0.151E-17 -.124E-16 -.730E-18   0.477E-12 -.477E-12 0.196E-15
   0.109E-13 0.622E-14 -.213E-13   0.237E-16 0.356E-15 0.851E-15   0.281E-17 0.628E-17 0.268E-17   0.558E-16 0.136E-15 0.135E-15

 POSITION                                       TOTAL-FORCE (eV/Angst)
      2.41069      0.00000      0.66024        -0.000000      0.000000      0.000000
     -0.00000     -0.00000      0.00000         0.000000     -0.000000     -0.000000
    total drift:                                0.000000      0.000000     -0.000000

  FREE ENERGIE OF THE ION-ELECTRON SYSTEM (eV)
  free  energy   TOTEN  =       -10.30459444 eV

  energy  without entropy=      -10.29380750  energy(sigma->0) =      -10.29920097

 d Force = 0.0000000E+00[ 0.000E+00, 0.000E+00]  d Energy = 0.2370760E-07-0.237E-07
 d Force = 0.0000000E+00[ 0.000E+00, 0.000E+00]  d Ewald  =-0.5359630E-05 0.536E-05

 writing wavefunctions