 vasp.5.4.4.18Apr17-6-g9f103f2a35 (build Dec 09 2018 21:25:21) complex

 executed on IFC18.0.1.163_CrayMP date 2019.03.20  09:17:11

 INCAR:
 POTCAR:   PAW_PBE Si 05Jan2001

 POTCAR:   PAW_PBE Si 05Jan2001
   VRHFIN =Si: s2p2

   TITEL  = PAW_PBE Si 05Jan2001
   POMASS =   28.085; ZVAL   =    4.000    mass and valenz
   ENMAX  =  245.345; ENMIN  =  184.009 eV
   QCUT   =   -4.246; QGAM   =    8.493    optimization parameters

   Description
     l     E      TYP  RCUT    TYP  RCUT
     0   .000     23  1.900
     0   .000     23  1.900
     1   .000     23  1.900
     1   .000     23  1.900
     2   .000      7  1.900

 PAW_PBE Si 05Jan2001                   :

 POSCAR: Si2
  positions in direct lattice
 exchange correlation table for  LEXCH =        8
   RHO(1)=    0.500       N(1)  =     2000
   RHO(2)=  100.500       N(2)  =     4000

 ion  position               nearest neighbor table
   1  0.250  0.750  0.500-   2 2.53   2 2.53   2 2.53   2 2.53   2 3.11   2 3.11   2 3.11   2 3.11

   2  0.000  0.000  0.000-   1 2.53   1 2.53   1 2.53   1 2.53   1 3.11   1 3.11   1 3.11   1 3.11

  LATTYP: Found a body centered tetragonal cell.
 ALAT       =     4.9000000000
 C/A-ratio  =     0.5200000000

  Lattice vectors:

 A1 = (  -2.4500000000,   2.4500000000,   1.2740000000)
 A2 = (   2.4500000000,  -2.4500000000,   1.2740000000)
 A3 = (   2.4500000000,   2.4500000000,  -1.2740000000)

Analysis of symmetry for initial positions (statically):
 Subroutine PRICEL returns:
 Original cell was already a primitive cell.

 Routine SETGRP: Setting up the symmetry group for a
 body centered tetragonal supercell.

 Subroutine GETGRP returns: Found 16 space group operations
 (whereof  8 operations were pure point group operations)
 out of a pool of 16 trial point group operations.

The static configuration has the point symmetry D_2d.
 The point group associated with its full space group is D_4h.

Analysis of symmetry for dynamics (positions and initial velocities):
 Subroutine PRICEL returns:
 Original cell was already a primitive cell.

 Routine SETGRP: Setting up the symmetry group for a
 body centered tetragonal supercell.

 Subroutine GETGRP returns: Found 16 space group operations
 (whereof  8 operations were pure point group operations)
 out of a pool of 16 trial point group operations.

The dynamic configuration has the point symmetry D_2d.
 The point group associated with its full space group is D_4h.

 Subroutine INISYM returns: Found 16 space group operations
 (whereof  8 operations are pure point group operations),
 and found     1 'primitive' translations

 KPOINTS: Automatic kpoint scheme

Automatic generation of k-mesh.
Space group operators:
 irot       det(A)        alpha          n_x          n_y          n_z        tau_x        tau_y        tau_z
    1     1.000000     0.000000     1.000000     0.000000     0.000000     0.000000     0.000000     0.000000
    2    -1.000000    90.000000    -0.000000    -0.000000    -1.000000     0.000000     0.000000     0.000000
    3     1.000000   180.000000    -0.000000    -0.000000    -1.000000     0.000000     0.000000     0.000000
    4    -1.000000    90.000000    -0.000000     0.000000     1.000000     0.000000     0.000000     0.000000
    5    -1.000000   180.000000     0.000000    -1.000000     0.000000     0.000000     0.000000     0.000000
    6     1.000000   180.000000     0.707107     0.707107    -0.000000     0.000000     0.000000     0.000000
    7    -1.000000   180.000000     1.000000     0.000000     0.000000     0.000000     0.000000     0.000000
    8     1.000000   180.000000     0.707107    -0.707107     0.000000     0.000000     0.000000     0.000000
    9    -1.000000     0.000000     1.000000     0.000000     0.000000     0.250000     0.750000     0.500000
   10     1.000000    90.000000    -0.000000    -0.000000    -1.000000     0.250000     0.750000     0.500000
   11    -1.000000   180.000000    -0.000000    -0.000000    -1.000000     0.250000     0.750000     0.500000
   12     1.000000    90.000000    -0.000000     0.000000     1.000000     0.250000     0.750000     0.500000
   13     1.000000   180.000000     0.000000    -1.000000     0.000000     0.250000     0.750000     0.500000
   14    -1.000000   180.000000     0.707107     0.707107    -0.000000     0.250000     0.750000     0.500000
   15     1.000000   180.000000     1.000000     0.000000     0.000000     0.250000     0.750000     0.500000
   16    -1.000000   180.000000     0.707107    -0.707107     0.000000     0.250000     0.750000     0.500000

 Subroutine IBZKPT returns following result:

 Found     99 irreducible k-points:

 Following reciprocal coordinates:
            Coordinates               Weight
  0.050000  0.050000  0.050000    128.000000
  0.150000  0.050000  0.050000    256.000000
  0.250000  0.050000  0.050000    256.000000
  0.350000  0.050000  0.050000    256.000000
  0.450000  0.050000  0.050000    128.000000
 -0.050000  0.050000  0.050000     64.000000
  0.150000  0.150000  0.050000    128.000000
  0.250000  0.150000  0.050000    256.000000
  0.350000  0.150000  0.050000    256.000000
  0.450000  0.150000  0.050000    256.000000
 -0.450000  0.150000  0.050000    256.000000
 -0.350000  0.150000  0.050000    256.000000
 -0.250000  0.150000  0.050000    128.000000
 -0.150000  0.150000  0.050000    128.000000
 -0.050000  0.150000  0.050000    128.000000
  0.250000  0.250000  0.050000    128.000000
  0.350000  0.250000  0.050000    256.000000
  0.450000  0.250000  0.050000    256.000000
 -0.450000  0.250000  0.050000    256.000000
 -0.350000  0.250000  0.050000    128.000000
 -0.250000  0.250000  0.050000    128.000000
 -0.150000  0.250000  0.050000    256.000000
 -0.050000  0.250000  0.050000    128.000000
  0.350000  0.350000  0.050000    128.000000
  0.450000  0.350000  0.050000    256.000000
 -0.450000  0.350000  0.050000    128.000000
 -0.350000  0.350000  0.050000    128.000000
 -0.250000  0.350000  0.050000    256.000000
 -0.150000  0.350000  0.050000    256.000000
 -0.050000  0.350000  0.050000    128.000000
  0.450000  0.450000  0.050000     64.000000
 -0.450000  0.450000  0.050000    128.000000
 -0.350000  0.450000  0.050000    256.000000
 -0.250000  0.450000  0.050000    256.000000
 -0.150000  0.450000  0.050000    256.000000
 -0.050000  0.450000  0.050000    128.000000
 -0.450000 -0.450000  0.050000    128.000000
 -0.350000 -0.450000  0.050000    256.000000
 -0.250000 -0.450000  0.050000    256.000000
 -0.150000 -0.450000  0.050000    256.000000
 -0.050000 -0.450000  0.050000    128.000000
 -0.350000 -0.350000  0.050000    128.000000
 -0.250000 -0.350000  0.050000    256.000000
 -0.150000 -0.350000  0.050000    256.000000
 -0.050000 -0.350000  0.050000    128.000000
 -0.250000 -0.250000  0.050000    128.000000
 -0.150000 -0.250000  0.050000    256.000000
 -0.050000 -0.250000  0.050000    128.000000
 -0.150000 -0.150000  0.050000    128.000000
 -0.050000 -0.150000  0.050000    128.000000
 -0.050000 -0.050000  0.050000     32.000000
  0.150000  0.150000  0.150000    128.000000
  0.250000  0.150000  0.150000    256.000000
  0.350000  0.150000  0.150000    128.000000
 -0.150000  0.150000  0.150000     64.000000
  0.250000  0.250000  0.150000    128.000000
  0.350000  0.250000  0.150000    256.000000
  0.450000  0.250000  0.150000    128.000000
 -0.250000  0.250000  0.150000    128.000000
 -0.150000  0.250000  0.150000    128.000000
[...]
 -0.250000  0.450000  0.250000    128.000000
 -0.450000 -0.450000  0.250000    128.000000
 -0.350000 -0.450000  0.250000    256.000000
 -0.250000 -0.450000  0.250000    128.000000
 -0.350000 -0.350000  0.250000    128.000000
 -0.250000 -0.350000  0.250000    128.000000
 -0.250000 -0.250000  0.250000     32.000000
 -0.350000  0.350000  0.350000     64.000000
 -0.450000  0.450000  0.350000    128.000000
 -0.350000  0.450000  0.350000    128.000000
 -0.450000 -0.450000  0.350000    128.000000
 -0.350000 -0.450000  0.350000    128.000000
 -0.350000 -0.350000  0.350000     32.000000
 -0.450000  0.450000  0.450000     64.000000
 -0.450000 -0.450000  0.450000     32.000000

 Following cartesian coordinates:
            Coordinates               Weight
  0.020408  0.020408  0.039246    128.000000
  0.020408  0.040816  0.078493    256.000000
  0.020408  0.061224  0.117739    256.000000
  0.020408  0.081633  0.156986    256.000000
  0.020408  0.102041  0.196232    128.000000
  0.020408  0.000000 -0.000000     64.000000
  0.040816  0.040816  0.117739    128.000000
  0.040816  0.061224  0.156986    256.000000
  0.040816  0.081633  0.196232    256.000000
  0.040816  0.102041  0.235479    256.000000
  0.040816 -0.081633 -0.117739    256.000000
  0.040816 -0.061224 -0.078493    256.000000
  0.040816 -0.040816 -0.039246    128.000000
  0.040816 -0.020408  0.000000    128.000000
  0.040816  0.000000  0.039246    128.000000
  0.061224  0.061224  0.196232    128.000000
  0.061224  0.081633  0.235479    256.000000
  0.061224  0.102041  0.274725    256.000000
  0.061224 -0.081633 -0.078493    256.000000
  0.061224 -0.061224 -0.039246    128.000000
  0.061224 -0.040816  0.000000    128.000000
  0.061224 -0.020408  0.039246    256.000000
  0.061224  0.000000  0.078493    128.000000
  0.081633  0.081633  0.274725    128.000000
  0.081633  0.102041  0.313972    256.000000
  0.081633 -0.081633 -0.039246    128.000000
  0.081633 -0.061224  0.000000    128.000000
  0.081633 -0.040816  0.039246    256.000000
  0.081633 -0.020408  0.078493    256.000000
  0.081633  0.000000  0.117739    128.000000
  0.102041  0.102041  0.353218     64.000000
  0.102041 -0.081633  0.000000    128.000000
  0.102041 -0.061224  0.039246    256.000000
  0.102041 -0.040816  0.078493    256.000000
  0.102041 -0.020408  0.117739    256.000000
  0.102041  0.000000  0.156986    128.000000
 -0.081633 -0.081633 -0.353218    128.000000
 -0.081633 -0.061224 -0.313972    256.000000
 -0.081633 -0.040816 -0.274725    256.000000
 -0.081633 -0.020408 -0.235479    256.000000
 -0.081633 -0.000000 -0.196232    128.000000
 -0.061224 -0.061224 -0.274725    128.000000
 -0.061224 -0.040816 -0.235479    256.000000
 -0.061224 -0.020408 -0.196232    256.000000
 -0.061224 -0.000000 -0.156986    128.000000
 -0.040816 -0.040816 -0.196232    128.000000
 -0.040816 -0.020408 -0.156986    256.000000
 -0.040816 -0.000000 -0.117739    128.000000
 -0.020408 -0.020408 -0.117739    128.000000
 -0.020408  0.000000 -0.078493    128.000000
 -0.000000  0.000000 -0.039246     32.000000
  0.061224  0.061224  0.117739    128.000000
  0.061224  0.081633  0.156986    256.000000
  0.061224  0.102041  0.196232    128.000000
  0.061224  0.000000  0.000000     64.000000
  0.081633  0.081633  0.196232    128.000000
  0.081633  0.102041  0.235479    256.000000
  0.081633  0.122449  0.274725    128.000000
  0.081633 -0.020408  0.000000    128.000000
  0.081633  0.000000  0.039246    128.000000
[...]
  0.142857  0.000000  0.078493    128.000000
 -0.040816 -0.040816 -0.353218    128.000000
 -0.040816 -0.020408 -0.313972    256.000000
 -0.040816  0.000000 -0.274725    128.000000
 -0.020408 -0.020408 -0.274725    128.000000
 -0.020408  0.000000 -0.235479    128.000000
[...]
 k-point  4 :   0.3500 0.0500 0.0500  plane waves:     275
 k-point  5 :   0.4500 0.0500 0.0500  plane waves:     280
 k-point  6 :  -0.0500 0.0500 0.0500  plane waves:     275
 k-point  7 :   0.1500 0.1500 0.0500  plane waves:     273
 k-point  8 :   0.2500 0.1500 0.0500  plane waves:     274
 k-point  9 :   0.3500 0.1500 0.0500  plane waves:     275
 k-point 10 :   0.4500 0.1500 0.0500  plane waves:     274
 k-point 11 :  -0.4500 0.1500 0.0500  plane waves:     273
 k-point 12 :  -0.3500 0.1500 0.0500  plane waves:     276
 k-point 13 :  -0.2500 0.1500 0.0500  plane waves:     275
 k-point 14 :  -0.1500 0.1500 0.0500  plane waves:     279
 k-point 15 :  -0.0500 0.1500 0.0500  plane waves:     274
 k-point 16 :   0.2500 0.2500 0.0500  plane waves:     273
 k-point 17 :   0.3500 0.2500 0.0500  plane waves:     273
 k-point 18 :   0.4500 0.2500 0.0500  plane waves:     270
 k-point 19 :  -0.4500 0.2500 0.0500  plane waves:     271
 k-point 20 :  -0.3500 0.2500 0.0500  plane waves:     277
 k-point 21 :  -0.2500 0.2500 0.0500  plane waves:     281
 k-point 22 :  -0.1500 0.2500 0.0500  plane waves:     277
 k-point 23 :  -0.0500 0.2500 0.0500  plane waves:     273
 k-point 24 :   0.3500 0.3500 0.0500  plane waves:     269
 k-point 25 :   0.4500 0.3500 0.0500  plane waves:     273
 k-point 26 :  -0.4500 0.3500 0.0500  plane waves:     278
 k-point 27 :  -0.3500 0.3500 0.0500  plane waves:     281
 k-point 28 :  -0.2500 0.3500 0.0500  plane waves:     278
 k-point 29 :  -0.1500 0.3500 0.0500  plane waves:     272
 k-point 30 :  -0.0500 0.3500 0.0500  plane waves:     276
 k-point 31 :   0.4500 0.4500 0.0500  plane waves:     280
 k-point 32 :  -0.4500 0.4500 0.0500  plane waves:     277
 k-point 33 :  -0.3500 0.4500 0.0500  plane waves:     277
 k-point 34 :  -0.2500 0.4500 0.0500  plane waves:     272
 k-point 35 :  -0.1500 0.4500 0.0500  plane waves:     272
 k-point 36 :  -0.0500 0.4500 0.0500  plane waves:     278
 k-point 37 :  -0.4500-0.4500 0.0500  plane waves:     275
 k-point 38 :  -0.3500-0.4500 0.0500  plane waves:     272
 k-point 39 :  -0.2500-0.4500 0.0500  plane waves:     270
 k-point 40 :  -0.1500-0.4500 0.0500  plane waves:     275
 k-point 41 :  -0.0500-0.4500 0.0500  plane waves:     280
 k-point 42 :  -0.3500-0.3500 0.0500  plane waves:     272
 k-point 43 :  -0.2500-0.3500 0.0500  plane waves:     274
 k-point 44 :  -0.1500-0.3500 0.0500  plane waves:     274
 k-point 45 :  -0.0500-0.3500 0.0500  plane waves:     278
 k-point 46 :  -0.2500-0.2500 0.0500  plane waves:     273
 k-point 47 :  -0.1500-0.2500 0.0500  plane waves:     274
 k-point 48 :  -0.0500-0.2500 0.0500  plane waves:     273
 k-point 49 :  -0.1500-0.1500 0.0500  plane waves:     273
 k-point 50 :  -0.0500-0.1500 0.0500  plane waves:     277
 k-point 51 :  -0.0500-0.0500 0.0500  plane waves:     263
 k-point 52 :   0.1500 0.1500 0.1500  plane waves:     271
 k-point 53 :   0.2500 0.1500 0.1500  plane waves:     270
 k-point 54 :   0.3500 0.1500 0.1500  plane waves:     274
 k-point 55 :  -0.1500 0.1500 0.1500  plane waves:     275
 k-point 56 :   0.2500 0.2500 0.1500  plane waves:     271
 k-point 57 :   0.3500 0.2500 0.1500  plane waves:     271
 k-point 58 :   0.4500 0.2500 0.1500  plane waves:     269
 k-point 59 :  -0.2500 0.2500 0.1500  plane waves:     276
 k-point 60 :  -0.1500 0.2500 0.1500  plane waves:     275
[...]
 k-point 85 :  -0.2500 0.4500 0.2500  plane waves:     279
 k-point 86 :  -0.4500-0.4500 0.2500  plane waves:     275
 k-point 87 :  -0.3500-0.4500 0.2500  plane waves:     278
 k-point 88 :  -0.2500-0.4500 0.2500  plane waves:     281
 k-point 89 :  -0.3500-0.3500 0.2500  plane waves:     277
 k-point 90 :  -0.2500-0.3500 0.2500  plane waves:     273
 k-point 91 :  -0.2500-0.2500 0.2500  plane waves:     267
 k-point 92 :  -0.3500 0.3500 0.3500  plane waves:     274
 k-point 93 :  -0.4500 0.4500 0.3500  plane waves:     271
 k-point 94 :  -0.3500 0.4500 0.3500  plane waves:     275
 k-point 95 :  -0.4500-0.4500 0.3500  plane waves:     273
 k-point 96 :  -0.3500-0.4500 0.3500  plane waves:     274
 k-point 97 :  -0.3500-0.3500 0.3500  plane waves:     275
 k-point 98 :  -0.4500 0.4500 0.4500  plane waves:     276
 k-point 99 :  -0.4500-0.4500 0.4500  plane waves:     276

 maximum and minimum number of plane-waves per node :       281      263

 maximum number of plane-waves:       281
 maximum index in each direction:
   IXMAX=    5   IYMAX=    5   IZMAX=    4
   IXMIN=   -5   IYMIN=   -5   IZMIN=   -5

 serial   3D FFT for wavefunctions
 parallel 3D FFT for charge:
    minimum data exchange during FFTs selected (reduces bandwidth)

 Broyden mixing: mesh for mixing (old mesh)
   NGX =  9   NGY =  9   NGZ =  9
  (NGX  = 28   NGY  = 28   NGZ  = 28)
  gives a total of    729 points

 initial charge density was supplied:
 charge density of overlapping atoms calculated
 number of electron       8.0000000 magnetization
 keeping initial charge density in first step

 Maximum index for augmentation-charges          442 (set IRDMAX)

 First call to EWALD:  gamma=   0.567
 Maximum number of real-space cells 4x 4x 3
 Maximum number of reciprocal cells 3x 3x 3

--------------------------------------- Iteration      1(   1)  ---------------------------------------

 eigenvalue-minimisations  :  1616
 total energy-change (2. order) :-0.1436109E+01  (-0.2269058E+03)
 number of electron       8.0000000 magnetization
 augmentation part        8.0000000 magnetization

 Free energy of the ion-electron system (eV)
  alpha Z        PSCENC =         4.40202223
  Ewald energy   TEWEN  =      -265.18101312
  -Hartree energ DENC   =        -2.30415367
  -exchange      EXHF   =         0.00000000
  -V(xc)+E(xc)   XCENC  =       -17.81545108
  PAW double counting   =        65.95520812      -30.76852678
  entropy T*S    EENTRO =        -0.01310204
  eigenvalues    EBANDS =        38.16540805
  atomic energy  EATOM  =       206.12349923
  Solvation  Ediel_sol  =         0.00000000
  free energy    TOTEN  =        -1.43610906 eV

  energy without entropy =       -1.42300702  energy(sigma->0) =       -1.42955804

[...]

 Broyden mixing:
  rms(total) = 0.14996E+00    rms(broyden)= 0.14994E+00
  rms(prec ) = 0.33572E+00
  weight for this iteration     100.00

[...]

 eigenvalue-minimisations  :  2088
 total energy-change (2. order) : 0.4982584E-02  (-0.1751394E-03)
 number of electron       7.9999993 magnetization
 augmentation part       -0.4702080 magnetization

[...]

 eigenvalues of (default mixing * dielectric matrix)
  average eigenvalue GAMMA=   2.6694
  2.6694

[...]

 average (electrostatic) potential at core
  the test charge radii are     0.9892
  (the norm of the test charge is              1.0000)
       1 -80.5459       2 -80.5459

 E-fermi :   9.0746     XC(G=0): -10.8918     alpha+bet :-15.6819

 k-point     1 :       0.0500    0.0500    0.0500
  band No.  band energies     occupation
      1      -4.2724      2.00000
      2       4.7299      2.00000
      3       6.6009      2.00000
      4       7.7375      2.00000
      5      11.4912      0.00000
      6      15.0392      0.00000
      7      16.0788      0.00000
      8      16.9888      0.00000

[...]

 soft charge-density along one line, spin component           1
         0         1         2         3         4         5         6         7         8         9
 total charge-density along one line

------------------------ aborting loop because EDIFF is reached ----------------------------------------

  FORCE on cell =-STRESS in cart. coord.  units (eV):
  Direction    XX          YY          ZZ          XY          YZ          ZX
  Alpha Z     4.40202     4.40202     4.40202
  Ewald     -90.96023   -90.96023   -83.26083    -0.00000     0.00000     0.00000
  Hartree     0.55110     0.55110     1.40420     0.00000     0.00000     0.00000
  E(xc)     -25.43235   -25.43235   -25.38940     0.00005     0.00001     0.00001
  Local     -11.18728   -11.18728   -17.67478    -0.00002    -0.00005    -0.00005
  n-local    76.97335    76.99657    76.69098     1.05934    -0.31149    -0.55728
  augment   -12.06764   -12.06764   -11.97647     0.00004     0.00005     0.00005
  Kinetic    57.34711    57.61221    56.36540     3.26042    -1.77610    -3.49092
  Fock        0.00000     0.00000     0.00000     0.00000     0.00000     0.00000
  Total      -0.22975    -0.22975     0.56112    -0.00000     0.00000     0.00000
  in kB     -12.03395   -12.03395    29.39026    -0.00000     0.00000     0.00000

 VOLUME and BASIS-vectors are now :
  energy-cutoff  :      250.00
  volume of cell :       30.59
      direct lattice vectors                 reciprocal lattice vectors
    -2.450000000  2.450000000  1.274000000     0.000000000  0.204081633  0.392464678
     2.450000000 -2.450000000  1.274000000     0.204081633  0.000000000  0.392464678
     2.450000000  2.450000000 -1.274000000     0.204081633  0.204081633 -0.000000000

[...]

 FORCES acting on ions
    electron-ion (+dipol)            ewald-force                    non-local-force                 convergence-correction
   0.944E-05 -.944E-05 0.152E-13   0.198E-14 0.156E-15 0.342E-17   -.233E-16 0.599E-16 0.156E-16   -.208E-06 0.208E-06 -.400E-17
   -.944E-05 0.944E-05 -.784E-14   -.185E-14 0.943E-16 0.891E-15   0.207E-16 -.417E-16 -.186E-16   0.208E-06 -.208E-06 -.382E-16
   -.142E-13 0.126E-13 0.732E-14   0.139E-15 0.250E-15 0.894E-15   -.260E-17 0.182E-16 -.295E-17   -.153E-15 0.270E-16 -.422E-16

 POSITION                                       TOTAL-FORCE (eV/Angst)
      2.45000      0.00000      0.63700        -0.000000      0.000000     -0.000000
      0.00000      0.00000      0.00000         0.000000     -0.000000      0.000000
    total drift:                               -0.000000      0.000000      0.000000

  FREE ENERGIE OF THE ION-ELECTRON SYSTEM (eV)
  free  energy   TOTEN  =       -10.22699869 eV

  energy  without entropy=      -10.21032014  energy(sigma->0) =      -10.21865941

[...]

 d Force = 0.0000000E+00[ 0.000E+00, 0.000E+00]  d Energy = 0.7174058E-02-0.717E-02
 d Force = 0.0000000E+00[ 0.000E+00, 0.000E+00]  d Ewald  =-0.1290631E+00 0.129E+00

 Steepest descent step on ions:
 trial-energy change:   -0.007174  1 .order   -0.007670   -0.010141   -0.005200
  (g-gl).g = 0.101E-01      g.g   = 0.101E-01  gl.gl    = 0.000E+00
 g(Force)  = 0.176E-45   g(Stress)= 0.101E-01 ortho     = 0.000E+00
 gamma     =   0.00000
 trial     =   1.00000
 opt step  =   2.05221  (harmonic =   2.05221) maximal distance =0.00000000
 next E    =   -10.237405   (d E  =  -0.01041)

[...]

 d Force = 0.0000000E+00[ 0.000E+00, 0.000E+00]  d Energy = 0.1076031E-03-0.108E-03
 d Force = 0.0000000E+00[ 0.000E+00, 0.000E+00]  d Ewald  =-0.3147067E-01 0.315E-01

[...]

 d Force = 0.0000000E+00[ 0.000E+00, 0.000E+00]  d Energy =-0.1976026E-04 0.198E-04
 d Force = 0.0000000E+00[ 0.000E+00, 0.000E+00]  d Ewald  =-0.6398694E-01 0.640E-01

[...]

 d Force = 0.0000000E+00[ 0.000E+00, 0.000E+00]  d Energy =-0.1403943E-02 0.140E-02
 d Force = 0.0000000E+00[ 0.000E+00, 0.000E+00]  d Ewald  =-0.1319411E+00 0.132E+00

[...]

 eigenvalues of (default mixing * dielectric matrix)
  average eigenvalue GAMMA=   1.4203
  2.2279  0.6128

[...]

 d Force = 0.0000000E+00[ 0.000E+00, 0.000E+00]  d Energy = 0.1204064E-02-0.120E-02
 d Force = 0.0000000E+00[ 0.000E+00, 0.000E+00]  d Ewald  = 0.1163572E+00-0.116E+00

[...]

 Broyden mixing:
  rms(total) = 0.40954E-04    rms(broyden)= 0.39569E-04
  rms(prec ) = 0.12040E-03
  weight for this iteration     100.00

[...]

 Broyden mixing:
  rms(total) = 0.16053E-04    rms(broyden)= 0.12107E-04
  rms(prec ) = 0.36796E-04
  weight for this iteration     100.00
  WARNING: grid for Broyden might be to small

[...]

 eigenvalue-minimisations  :   792
 total energy-change (2. order) :-0.3043309E-07  (-0.2314545E-10)
 number of electron       7.9999987 magnetization
 augmentation part       -0.4721483 magnetization

 Broyden mixing:
  rms(total) = 0.10601E-04    rms(broyden)= 0.11455E-05
  rms(prec ) = 0.34832E-05
  weight for this iteration     100.00
  WARNING: grid for Broyden might be to small

[...]

--------------------------------------- Iteration     15(   2)  ---------------------------------------

 eigenvalue-minimisations  :   792
 total energy-change (2. order) : 0.2288516E-09  (-0.2178518E-11)
 number of electron       7.9999987 magnetization
 augmentation part       -0.4721483 magnetization

 Free energy of the ion-electron system (eV)
  alpha Z        PSCENC =         4.36336082
  Ewald energy   TEWEN  =      -264.43211045
  -Hartree energ DENC   =        -2.54570635
  -exchange      EXHF   =         0.00000000
  -V(xc)+E(xc)   XCENC  =       -17.61594356
  PAW double counting   =        70.80972429      -35.72980968
  entropy T*S    EENTRO =        -0.01607791
  eigenvalues    EBANDS =        28.79896599
  atomic energy  EATOM  =       206.12349923
  Solvation  Ediel_sol  =         0.00000000
  free energy    TOTEN  =       -10.24409763 eV

  energy without entropy =      -10.22801972  energy(sigma->0) =      -10.23605867

 average (electrostatic) potential at core
  the test charge radii are     0.9892
  (the norm of the test charge is              1.0000)
       1 -80.6480       2 -80.6480

 E-fermi :   8.9848     XC(G=0): -10.8562     alpha+bet :-15.5442

[...]

 k-point    99 :      -0.4500   -0.4500    0.4500
  band No.  band energies     occupation
      1       1.0802      2.00000
      2       1.1177      2.00000
      3       2.5365      2.00000
      4       2.5365      2.00000
      5      10.8638      0.00000
      6      17.4676      0.00000
      7      21.1233      0.00000
      8      21.1504      0.00000

 soft charge-density along one line, spin component           1
         0         1         2         3         4         5         6         7         8         9
 total charge-density along one line

------------------------ aborting loop because EDIFF is reached ----------------------------------------

  FORCE on cell =-STRESS in cart. coord.  units (eV):
  Direction    XX          YY          ZZ          XY          YZ          ZX
  Alpha Z     4.36336     4.36336     4.36336
  Ewald     -86.05902   -86.05902   -92.31428     0.00000     0.00000     0.00000
  Hartree     0.92528     0.92528     0.69515     0.00000    -0.00000    -0.00000
  E(xc)     -25.43602   -25.43602   -25.26818     0.00005     0.00001     0.00001
  Local     -16.37176   -16.37176    -7.84158    -0.00004    -0.00005    -0.00005
  n-local    78.01893    77.88432    74.71128     1.28420    -0.47323    -0.58810
  augment   -12.10476   -12.10476   -11.84379     0.00004     0.00005     0.00005
  Kinetic    54.91974    58.44141    57.38174     2.89869    -1.57462    -2.17854
  Fock        0.00000     0.00000     0.00000     0.00000     0.00000     0.00000
  Total      -0.05070    -0.05070    -0.11629     0.00000     0.00000     0.00000
  in kB      -2.63241    -2.63241    -6.03764     0.00000     0.00000     0.00000

 VOLUME and BASIS-vectors are now :
  energy-cutoff  :      250.00
  volume of cell :       30.86
      direct lattice vectors                 reciprocal lattice vectors
    -2.386855225  2.386855225  1.354192940     0.000000000  0.209480657  0.369223606
     2.386855225 -2.386855225  1.354192940     0.209480657  0.000000000  0.369223606
     2.386855225  2.386855225 -1.354192940     0.209480657  0.209480657  0.000000000

  length of vectors
     3.637030967  3.637030967  3.637030967     0.424509383  0.424509383  0.296250386

 FORCES acting on ions
    electron-ion (+dipol)            ewald-force                    non-local-force                 convergence-correction
   0.808E-05 -.808E-05 0.394E-14   0.117E-14 0.134E-15 0.112E-15   0.288E-16 0.357E-16 -.194E-17   -.324E-10 0.324E-10 -.296E-15
   -.808E-05 0.808E-05 -.262E-14   -.124E-14 -.424E-15 -.239E-15   -.349E-16 -.557E-16 0.942E-17   0.324E-10 -.324E-10 -.186E-15
   -.211E-13 0.116E-13 0.131E-14   -.675E-16 -.290E-15 -.127E-15   -.610E-17 -.200E-16 0.748E-17   -.117E-15 -.224E-16 -.482E-15

 POSITION                                       TOTAL-FORCE (eV/Angst)
      2.38686      0.00000      0.67710        -0.000000      0.000000     -0.000000
      0.00000     -0.00000      0.00000         0.000000     -0.000000      0.000000
    total drift:                               -0.000000      0.000000      0.000000

  FREE ENERGIE OF THE ION-ELECTRON SYSTEM (eV)
  free  energy   TOTEN  =       -10.24409763 eV

  energy  without entropy=      -10.22801972  energy(sigma->0) =      -10.23605867

 d Force = 0.0000000E+00[ 0.000E+00, 0.000E+00]  d Energy = 0.3026452E-07-0.303E-07
 d Force = 0.0000000E+00[ 0.000E+00, 0.000E+00]  d Ewald  = 0.6612098E-05-0.661E-05

 writing wavefunctions