 vasp.5.4.4.18Apr17-6-g9f103f2a35 (build Dec 09 2018 21:25:21) complex

 executed on IFC18.0.1.163_CrayMP date 2019.03.23  21:18:15

 INCAR:
 POTCAR:   PAW_PBE Si 05Jan2001

 POTCAR:   PAW_PBE Si 05Jan2001
   VRHFIN =Si: s2p2

   TITEL  = PAW_PBE Si 05Jan2001
   POMASS =   28.085; ZVAL   =    4.000    mass and valenz
   ENMAX  =  245.345; ENMIN  =  184.009 eV
   QCUT   =   -4.246; QGAM   =    8.493    optimization parameters

   Description
     l     E      TYP  RCUT    TYP  RCUT
     0   .000     23  1.900
     0   .000     23  1.900
     1   .000     23  1.900
     1   .000     23  1.900
     2   .000      7  1.900

 PAW_PBE Si 05Jan2001                   :

 POSCAR: Si2
  positions in direct lattice
 exchange correlation table for  LEXCH =        8
   RHO(1)=    0.500       N(1)  =     2000
   RHO(2)=  100.500       N(2)  =     4000

 ion  position               nearest neighbor table
   1  0.500  0.500  0.500-   2 2.39   2 2.39   2 2.39   2 2.39
   2  0.750  0.750  0.750-   1 2.39   1 2.39   1 2.39   1 2.39

  LATTYP: Found a face centered cubic cell.
 ALAT       =     5.5190400000

  Lattice vectors:

 A1 = (   0.0000000000,   2.7595200000,   2.7595200000)
 A2 = (   2.7595200000,   0.0000000000,   2.7595200000)
 A3 = (   2.7595200000,   2.7595200000,   0.0000000000)

Analysis of symmetry for initial positions (statically):
 Subroutine PRICEL returns:
 Original cell was already a primitive cell.

 Routine SETGRP: Setting up the symmetry group for a
 face centered cubic supercell.

 Subroutine GETGRP returns: Found 48 space group operations
 (whereof 24 operations were pure point group operations)
 out of a pool of 48 trial point group operations.

The static configuration has the point symmetry T_d .
 The point group associated with its full space group is O_h .

Analysis of symmetry for dynamics (positions and initial velocities):
 Subroutine PRICEL returns:
 Original cell was already a primitive cell.

 Routine SETGRP: Setting up the symmetry group for a
 face centered cubic supercell.

 Subroutine GETGRP returns: Found 48 space group operations
 (whereof 24 operations were pure point group operations)
 out of a pool of 48 trial point group operations.

The dynamic configuration has the point symmetry T_d .
 The point group associated with its full space group is O_h .

 Subroutine INISYM returns: Found 48 space group operations
 (whereof 24 operations are pure point group operations),
 and found     1 'primitive' translations

 KPOINTS: Automatic kpoint scheme

Automatic generation of k-mesh.
Space group operators:
 irot       det(A)        alpha          n_x          n_y          n_z        tau_x        tau_y        tau_z
    1     1.000000     0.000000     1.000000     0.000000     0.000000     0.000000     0.000000     0.000000
    2     1.000000   120.000000    -0.577350    -0.577350    -0.577350     0.000000     0.000000     0.000000
    3     1.000000   120.000000     0.577350     0.577350     0.577350     0.000000     0.000000     0.000000
    4    -1.000000    90.000000    -0.000000    -0.000000    -1.000000     0.000000     0.000000     0.000000
    5    -1.000000   180.000000     0.000000     0.707107     0.707107     0.000000     0.000000     0.000000
    6    -1.000000    90.000000    -0.000000     1.000000    -0.000000     0.000000     0.000000     0.000000
    7     1.000000   180.000000    -0.000000    -0.000000    -1.000000     0.000000     0.000000     0.000000
    8     1.000000   120.000000    -0.577350     0.577350     0.577350     0.000000     0.000000     0.000000
    9     1.000000   120.000000    -0.577350     0.577350    -0.577350     0.000000     0.000000     0.000000
   10    -1.000000    90.000000     0.000000     0.000000     1.000000     0.000000     0.000000     0.000000
   11    -1.000000    90.000000    -1.000000     0.000000     0.000000     0.000000     0.000000     0.000000
   12    -1.000000   180.000000     0.707107     0.000000     0.707107     0.000000     0.000000     0.000000
   13     1.000000   120.000000     0.577350    -0.577350     0.577350     0.000000     0.000000     0.000000
   14     1.000000   120.000000    -0.577350    -0.577350     0.577350     0.000000     0.000000     0.000000
   15     1.000000   180.000000     1.000000     0.000000     0.000000     0.000000     0.000000     0.000000
   16    -1.000000    90.000000     0.000000    -1.000000     0.000000     0.000000     0.000000     0.000000
   17    -1.000000   180.000000     0.707107     0.707107    -0.000000     0.000000     0.000000     0.000000
   18    -1.000000    90.000000     1.000000     0.000000     0.000000     0.000000     0.000000     0.000000
   19     1.000000   120.000000     0.577350    -0.577350    -0.577350     0.000000     0.000000     0.000000
   20     1.000000   180.000000    -0.000000    -1.000000    -0.000000     0.000000     0.000000     0.000000
   21     1.000000   120.000000     0.577350     0.577350    -0.577350     0.000000     0.000000     0.000000
   22    -1.000000   180.000000    -0.000000    -0.707107     0.707107     0.000000     0.000000     0.000000
   23    -1.000000   180.000000     0.707107    -0.707107     0.000000     0.000000     0.000000     0.000000
   24    -1.000000   180.000000     0.707107     0.000000    -0.707107     0.000000     0.000000     0.000000
   25    -1.000000     0.000000     1.000000     0.000000     0.000000     0.250000     0.250000     0.250000
   26    -1.000000   120.000000    -0.577350    -0.577350    -0.577350     0.250000     0.250000     0.250000
   27    -1.000000   120.000000     0.577350     0.577350     0.577350     0.250000     0.250000     0.250000
   28     1.000000    90.000000    -0.000000    -0.000000    -1.000000     0.250000     0.250000     0.250000
   29     1.000000   180.000000     0.000000     0.707107     0.707107     0.250000     0.250000     0.250000
   30     1.000000    90.000000    -0.000000     1.000000    -0.000000     0.250000     0.250000     0.250000
   31    -1.000000   180.000000    -0.000000    -0.000000    -1.000000     0.250000     0.250000     0.250000
   32    -1.000000   120.000000    -0.577350     0.577350     0.577350     0.250000     0.250000     0.250000
   33    -1.000000   120.000000    -0.577350     0.577350    -0.577350     0.250000     0.250000     0.250000
   34     1.000000    90.000000     0.000000     0.000000     1.000000     0.250000     0.250000     0.250000
   35     1.000000    90.000000    -1.000000     0.000000     0.000000     0.250000     0.250000     0.250000
   36     1.000000   180.000000     0.707107     0.000000     0.707107     0.250000     0.250000     0.250000
   37    -1.000000   120.000000     0.577350    -0.577350     0.577350     0.250000     0.250000     0.250000
   38    -1.000000   120.000000    -0.577350    -0.577350     0.577350     0.250000     0.250000     0.250000
   39    -1.000000   180.000000     1.000000     0.000000     0.000000     0.250000     0.250000     0.250000
   40     1.000000    90.000000     0.000000    -1.000000     0.000000     0.250000     0.250000     0.250000
   41     1.000000   180.000000     0.707107     0.707107    -0.000000     0.250000     0.250000     0.250000
   42     1.000000    90.000000     1.000000     0.000000     0.000000     0.250000     0.250000     0.250000
   43    -1.000000   120.000000     0.577350    -0.577350    -0.577350     0.250000     0.250000     0.250000
   44    -1.000000   180.000000    -0.000000    -1.000000    -0.000000     0.250000     0.250000     0.250000
   45    -1.000000   120.000000     0.577350     0.577350    -0.577350     0.250000     0.250000     0.250000
   46     1.000000   180.000000    -0.000000    -0.707107     0.707107     0.250000     0.250000     0.250000
   47     1.000000   180.000000     0.707107    -0.707107     0.000000     0.250000     0.250000     0.250000
   48     1.000000   180.000000     0.707107     0.000000    -0.707107     0.250000     0.250000     0.250000

 Subroutine IBZKPT returns following result:

 Found     60 irreducible k-points:

 Following reciprocal coordinates:
            Coordinates               Weight
  0.062500  0.062500  0.062500     96.000000
  0.187500  0.062500  0.062500    288.000000
  0.312500  0.062500  0.062500    288.000000
  0.437500  0.062500  0.062500    288.000000
 -0.437500  0.062500  0.062500    288.000000
 -0.312500  0.062500  0.062500    288.000000
 -0.187500  0.062500  0.062500    288.000000
 -0.062500  0.062500  0.062500    288.000000
  0.187500  0.187500  0.062500    288.000000
  0.312500  0.187500  0.062500    576.000000
  0.437500  0.187500  0.062500    576.000000
 -0.437500  0.187500  0.062500    576.000000
 -0.312500  0.187500  0.062500    576.000000
 -0.187500  0.187500  0.062500    576.000000
 -0.062500  0.187500  0.062500    576.000000
  0.312500  0.312500  0.062500    288.000000
  0.437500  0.312500  0.062500    576.000000
 -0.437500  0.312500  0.062500    576.000000
 -0.312500  0.312500  0.062500    576.000000
 -0.187500  0.312500  0.062500    576.000000
 -0.062500  0.312500  0.062500    576.000000
  0.437500  0.437500  0.062500    288.000000
 -0.437500  0.437500  0.062500    576.000000
 -0.312500  0.437500  0.062500    576.000000
 -0.187500  0.437500  0.062500    576.000000
 -0.062500  0.437500  0.062500    576.000000
 -0.437500 -0.437500  0.062500    288.000000
 -0.312500 -0.437500  0.062500    576.000000
 -0.187500 -0.437500  0.062500    576.000000
 -0.312500 -0.312500  0.062500    288.000000
 -0.187500 -0.312500  0.062500    576.000000
 -0.187500 -0.187500  0.062500    288.000000
  0.187500  0.187500  0.187500     96.000000
  0.312500  0.187500  0.187500    288.000000
  0.437500  0.187500  0.187500    288.000000
 -0.437500  0.187500  0.187500    288.000000
 -0.312500  0.187500  0.187500    288.000000
 -0.187500  0.187500  0.187500    288.000000
  0.312500  0.312500  0.187500    288.000000
  0.437500  0.312500  0.187500    576.000000
 -0.437500  0.312500  0.187500    576.000000
 -0.312500  0.312500  0.187500    576.000000
 -0.187500  0.312500  0.187500    576.000000
  0.437500  0.437500  0.187500    288.000000
 -0.437500  0.437500  0.187500    576.000000
 -0.312500  0.437500  0.187500    576.000000
 -0.187500  0.437500  0.187500    576.000000
 -0.437500 -0.437500  0.187500    288.000000
 -0.312500 -0.437500  0.187500    576.000000
 -0.312500 -0.312500  0.187500    288.000000
  0.312500  0.312500  0.312500     96.000000
  0.437500  0.312500  0.312500    288.000000
 -0.437500  0.312500  0.312500    288.000000
 -0.312500  0.312500  0.312500    288.000000
  0.437500  0.437500  0.312500    288.000000
 -0.437500  0.437500  0.312500    576.000000
 -0.312500  0.437500  0.312500    576.000000
 -0.437500 -0.437500  0.312500    288.000000
  0.437500  0.437500  0.437500     96.000000
 -0.437500  0.437500  0.437500    288.000000

 Following cartesian coordinates:
            Coordinates               Weight
  0.011324  0.011324  0.011324     96.000000
 -0.011324  0.033973  0.033973    288.000000
 -0.033973  0.056622  0.056622    288.000000
 -0.056622  0.079271  0.079271    288.000000
  0.101920 -0.079271 -0.079271    288.000000
  0.079271 -0.056622 -0.056622    288.000000
[...]
  -0.01132443  0.03397330  0.12456877       0.023
   0.14721763 -0.12456877 -0.03397330       0.023
   0.12456877 -0.10191990 -0.01132443       0.023
   0.10191990 -0.07927103  0.01132443       0.023
   0.07927103 -0.05662217  0.03397330       0.023
   0.01132443  0.01132443  0.14721763       0.012
   0.16986650 -0.14721763 -0.01132443       0.023
   0.14721763 -0.12456877  0.01132443       0.023
   0.12456877 -0.10191990  0.03397330       0.023
   0.10191990 -0.07927103  0.05662217       0.023
   0.01132443  0.01132443 -0.16986650       0.012
  -0.01132443  0.03397330 -0.14721763       0.023
  -0.03397330  0.05662217 -0.12456877       0.023
   0.01132443  0.01132443 -0.12456877       0.012
  -0.01132443  0.03397330 -0.10191990       0.023
   0.01132443  0.01132443 -0.07927103       0.012
   0.03397330  0.03397330  0.03397330       0.004
   0.01132443  0.05662217  0.05662217       0.012
  -0.01132443  0.07927103  0.07927103       0.012
   0.14721763 -0.07927103 -0.07927103       0.012
   0.12456877 -0.05662217 -0.05662217       0.012
   0.10191990 -0.03397330 -0.03397330       0.012
   0.03397330  0.03397330  0.07927103       0.012
   0.01132443  0.05662217  0.10191990       0.023
   0.16986650 -0.10191990 -0.05662217       0.023
   0.14721763 -0.07927103 -0.03397330       0.023
   0.12456877 -0.05662217 -0.01132443       0.023
   0.03397330  0.03397330  0.12456877       0.012
   0.19251536 -0.12456877 -0.03397330       0.023
   0.16986650 -0.10191990 -0.01132443       0.023
   0.14721763 -0.07927103  0.01132443       0.023
   0.03397330  0.03397330 -0.19251536       0.012
   0.01132443  0.05662217 -0.16986650       0.023
   0.03397330  0.03397330 -0.14721763       0.012
   0.05662217  0.05662217  0.05662217       0.004
   0.03397330  0.07927103  0.07927103       0.012
   0.19251536 -0.07927103 -0.07927103       0.012
   0.16986650 -0.05662217 -0.05662217       0.012
   0.05662217  0.05662217  0.10191990       0.012
   0.21516423 -0.10191990 -0.05662217       0.023
   0.19251536 -0.07927103 -0.03397330       0.023
   0.05662217  0.05662217 -0.21516423       0.012
   0.07927103  0.07927103  0.07927103       0.004
   0.23781310 -0.07927103 -0.07927103       0.012

 k-points in reciprocal lattice and weights: Automatic kpoint scheme
   0.06250000  0.06250000  0.06250000       0.004
   0.18750000  0.06250000  0.06250000       0.012
   0.31250000  0.06250000  0.06250000       0.012
   0.43750000  0.06250000  0.06250000       0.012
  -0.43750000  0.06250000  0.06250000       0.012
  -0.31250000  0.06250000  0.06250000       0.012
  -0.18750000  0.06250000  0.06250000       0.012
  -0.06250000  0.06250000  0.06250000       0.012
   0.18750000  0.18750000  0.06250000       0.012
   0.31250000  0.18750000  0.06250000       0.023
   0.43750000  0.18750000  0.06250000       0.023
  -0.43750000  0.18750000  0.06250000       0.023
  -0.31250000  0.18750000  0.06250000       0.023
  -0.18750000  0.18750000  0.06250000       0.023
  -0.06250000  0.18750000  0.06250000       0.023
   0.31250000  0.31250000  0.06250000       0.012
   0.43750000  0.31250000  0.06250000       0.023
  -0.43750000  0.31250000  0.06250000       0.023
  -0.31250000  0.31250000  0.06250000       0.023
  -0.18750000  0.31250000  0.06250000       0.023
  -0.06250000  0.31250000  0.06250000       0.023
   0.43750000  0.43750000  0.06250000       0.012
  -0.43750000  0.43750000  0.06250000       0.023
  -0.31250000  0.43750000  0.06250000       0.023
  -0.18750000  0.43750000  0.06250000       0.023
  -0.06250000  0.43750000  0.06250000       0.023
  -0.43750000 -0.43750000  0.06250000       0.012
  -0.31250000 -0.43750000  0.06250000       0.023
  -0.18750000 -0.43750000  0.06250000       0.023
  -0.31250000 -0.31250000  0.06250000       0.012
  -0.18750000 -0.31250000  0.06250000       0.023
  -0.18750000 -0.18750000  0.06250000       0.012
   0.18750000  0.18750000  0.18750000       0.004
   0.31250000  0.18750000  0.18750000       0.012
   0.43750000  0.18750000  0.18750000       0.012
  -0.43750000  0.18750000  0.18750000       0.012
  -0.31250000  0.18750000  0.18750000       0.012
  -0.18750000  0.18750000  0.18750000       0.012
   0.31250000  0.31250000  0.18750000       0.012
   0.43750000  0.31250000  0.18750000       0.023
  -0.43750000  0.31250000  0.18750000       0.023
  -0.31250000  0.31250000  0.18750000       0.023
  -0.18750000  0.31250000  0.18750000       0.023
   0.43750000  0.43750000  0.18750000       0.012
  -0.43750000  0.43750000  0.18750000       0.023
  -0.31250000  0.43750000  0.18750000       0.023
  -0.18750000  0.43750000  0.18750000       0.023
  -0.43750000 -0.43750000  0.18750000       0.012
  -0.31250000 -0.43750000  0.18750000       0.023
  -0.31250000 -0.31250000  0.18750000       0.012
   0.31250000  0.31250000  0.31250000       0.004
   0.43750000  0.31250000  0.31250000       0.012
  -0.43750000  0.31250000  0.31250000       0.012
  -0.31250000  0.31250000  0.31250000       0.012
   0.43750000  0.43750000  0.31250000       0.012
  -0.43750000  0.43750000  0.31250000       0.023
  -0.31250000  0.43750000  0.31250000       0.023
  -0.43750000 -0.43750000  0.31250000       0.012
   0.43750000  0.43750000  0.43750000       0.004
  -0.43750000  0.43750000  0.43750000       0.012

 position of ions in fractional coordinates (direct lattice)
   0.50000000  0.50000000  0.50000000
   0.75000000  0.75000000  0.75000000

 position of ions in cartesian coordinates  (Angst):
   2.75952000  2.75952000  2.75952000
   4.13928000  4.13928000  4.13928000

 k-point  1 :   0.0625 0.0625 0.0625  plane waves:     615
 k-point  2 :   0.1875 0.0625 0.0625  plane waves:     617
 k-point  3 :   0.3125 0.0625 0.0625  plane waves:     620
 k-point  4 :   0.4375 0.0625 0.0625  plane waves:     612
 k-point  5 :  -0.4375 0.0625 0.0625  plane waves:     619
 k-point  6 :  -0.3125 0.0625 0.0625  plane waves:     612
 k-point  7 :  -0.1875 0.0625 0.0625  plane waves:     618
 k-point  8 :  -0.0625 0.0625 0.0625  plane waves:     619
 k-point  9 :   0.1875 0.1875 0.0625  plane waves:     615
 k-point 10 :   0.3125 0.1875 0.0625  plane waves:     616
 k-point 11 :   0.4375 0.1875 0.0625  plane waves:     622
 k-point 12 :  -0.4375 0.1875 0.0625  plane waves:     622
 k-point 13 :  -0.3125 0.1875 0.0625  plane waves:     623
 k-point 14 :  -0.1875 0.1875 0.0625  plane waves:     622
 k-point 15 :  -0.0625 0.1875 0.0625  plane waves:     617
 k-point 16 :   0.3125 0.3125 0.0625  plane waves:     626
 k-point 17 :   0.4375 0.3125 0.0625  plane waves:     623
 k-point 18 :  -0.4375 0.3125 0.0625  plane waves:     630
 k-point 19 :  -0.3125 0.3125 0.0625  plane waves:     629
 k-point 20 :  -0.1875 0.3125 0.0625  plane waves:     622
 k-point 21 :  -0.0625 0.3125 0.0625  plane waves:     622
 k-point 22 :   0.4375 0.4375 0.0625  plane waves:     624
 k-point 23 :  -0.4375 0.4375 0.0625  plane waves:     628
 k-point 24 :  -0.3125 0.4375 0.0625  plane waves:     627
 k-point 25 :  -0.1875 0.4375 0.0625  plane waves:     627
 k-point 26 :  -0.0625 0.4375 0.0625  plane waves:     616
 k-point 27 :  -0.4375-0.4375 0.0625  plane waves:     632
 k-point 28 :  -0.3125-0.4375 0.0625  plane waves:     631
 k-point 29 :  -0.1875-0.4375 0.0625  plane waves:     625
 k-point 30 :  -0.3125-0.3125 0.0625  plane waves:     627
 k-point 31 :  -0.1875-0.3125 0.0625  plane waves:     619
 k-point 32 :  -0.1875-0.1875 0.0625  plane waves:     618
 k-point 33 :   0.1875 0.1875 0.1875  plane waves:     622
 k-point 34 :   0.3125 0.1875 0.1875  plane waves:     623
 k-point 35 :   0.4375 0.1875 0.1875  plane waves:     622
 k-point 36 :  -0.4375 0.1875 0.1875  plane waves:     626
 k-point 37 :  -0.3125 0.1875 0.1875  plane waves:     624
 k-point 38 :  -0.1875 0.1875 0.1875  plane waves:     619
 k-point 39 :   0.3125 0.3125 0.1875  plane waves:     616
 k-point 40 :   0.4375 0.3125 0.1875  plane waves:     624
 k-point 41 :  -0.4375 0.3125 0.1875  plane waves:     634
 k-point 42 :  -0.3125 0.3125 0.1875  plane waves:     629
 k-point 43 :  -0.1875 0.3125 0.1875  plane waves:     633
 k-point 44 :   0.4375 0.4375 0.1875  plane waves:     622
 k-point 45 :  -0.4375 0.4375 0.1875  plane waves:     631
 k-point 46 :  -0.3125 0.4375 0.1875  plane waves:     630
 k-point 47 :  -0.1875 0.4375 0.1875  plane waves:     633
 k-point 48 :  -0.4375-0.4375 0.1875  plane waves:     632
 k-point 49 :  -0.3125-0.4375 0.1875  plane waves:     632
 k-point 50 :  -0.3125-0.3125 0.1875  plane waves:     627
 k-point 51 :   0.3125 0.3125 0.3125  plane waves:     613
 k-point 52 :   0.4375 0.3125 0.3125  plane waves:     622
 k-point 53 :  -0.4375 0.3125 0.3125  plane waves:     623
 k-point 54 :  -0.3125 0.3125 0.3125  plane waves:     632
 k-point 55 :   0.4375 0.4375 0.3125  plane waves:     620
 k-point 56 :  -0.4375 0.4375 0.3125  plane waves:     628
 k-point 57 :  -0.3125 0.4375 0.3125  plane waves:     633
 k-point 58 :  -0.4375-0.4375 0.3125  plane waves:     632
 k-point 59 :   0.4375 0.4375 0.4375  plane waves:     619
 k-point 60 :  -0.4375 0.4375 0.4375  plane waves:     621

 maximum and minimum number of plane-waves per node :       634      612

 maximum number of plane-waves:       634
 maximum index in each direction:
   IXMAX=    6   IYMAX=    6   IZMAX=    5
   IXMIN=   -6   IYMIN=   -6   IZMIN=   -6

 serial   3D FFT for wavefunctions
 parallel 3D FFT for charge:
    minimum data exchange during FFTs selected (reduces bandwidth)

 Broyden mixing: mesh for mixing (old mesh)
   NGX = 11   NGY = 11   NGZ = 11
  (NGX  = 36   NGY  = 36   NGZ  = 36)
  gives a total of   1331 points

 initial charge density was supplied:
 charge density of overlapping atoms calculated
 number of electron       8.0000000 magnetization
 keeping initial charge density in first step

 Maximum index for augmentation-charges          650 (set IRDMAX)

 First call to EWALD:  gamma=   0.510
 Maximum number of real-space cells 3x 3x 3
 Maximum number of reciprocal cells 3x 3x 3

--------------------------------------- Iteration      1(   1)  ---------------------------------------

 eigenvalue-minimisations  :   960
 total energy-change (2. order) : 0.4795901E+01  (-0.2758892E+03)
 number of electron       8.0000000 magnetization
 augmentation part        8.0000000 magnetization

 Free energy of the ion-electron system (eV)
  alpha Z        PSCENC =         3.20393123
  Ewald energy   TEWEN  =      -224.87605460
  -Hartree energ DENC   =       -11.74556925
  -exchange      EXHF   =         0.00000000
  -V(xc)+E(xc)   XCENC  =       -18.79089067
  PAW double counting   =        65.95520812      -30.76852678
  entropy T*S    EENTRO =        -0.01169269
  eigenvalues    EBANDS =        15.69824120
  atomic energy  EATOM  =       206.13125414
  Solvation  Ediel_sol  =         0.00000000
  free energy    TOTEN  =         4.79590070 eV

  energy without entropy =        4.80759339  energy(sigma->0) =        4.80174704

[...]

 eigenvalue-minimisations  :  1520
 total energy-change (2. order) :-0.1559215E+02  (-0.1497351E+02)
 number of electron       8.0000000 magnetization
 augmentation part        8.0000000 magnetization

[...]

 Broyden mixing:
  rms(total) = 0.28891E+00    rms(broyden)= 0.28890E+00
  rms(prec ) = 0.82682E+00
  weight for this iteration     100.00

[...]

 eigenvalues of (default mixing * dielectric matrix)
  average eigenvalue GAMMA=   2.4594
  2.4594

[...]

 eigenvalue-minimisations  :  1208
 total energy-change (2. order) : 0.4963790E-01  (-0.1292165E-01)
 number of electron       7.9999992 magnetization
 augmentation part       -0.4570188 magnetization

[...]

 Broyden mixing:
  rms(total) = 0.25096E-02    rms(broyden)= 0.25088E-02
  rms(prec ) = 0.82659E-02
  weight for this iteration     100.00

 eigenvalues of (default mixing * dielectric matrix)
  average eigenvalue GAMMA=   2.1262
  1.3263  2.8094  2.2428

[...]

--------------------------------------- Iteration      1(   9)  ---------------------------------------

 eigenvalue-minimisations  :   776
 total energy-change (2. order) :-0.1046046E-03  (-0.1059547E-04)
 number of electron       7.9999992 magnetization
 augmentation part       -0.4579542 magnetization

 Free energy of the ion-electron system (eV)
  alpha Z        PSCENC =         3.20393123
  Ewald energy   TEWEN  =      -224.87605460
  -Hartree energ DENC   =       -15.49062147
  -exchange      EXHF   =         0.00000000
  -V(xc)+E(xc)   XCENC  =       -18.18291644
  PAW double counting   =        72.84331739      -37.83931653
  entropy T*S    EENTRO =        -0.00002070
  eigenvalues    EBANDS =         3.37096320
  atomic energy  EATOM  =       206.13125414
  Solvation  Ediel_sol  =         0.00000000
  free energy    TOTEN  =       -10.83946378 eV

  energy without entropy =      -10.83944308  energy(sigma->0) =      -10.83945343

 average (electrostatic) potential at core
  the test charge radii are     0.9892
  (the norm of the test charge is              1.0000)
       1 -83.7889       2 -83.7889

 E-fermi :   5.6934     XC(G=0):  -9.2237     alpha+bet :-11.4138

 k-point     1 :       0.0625    0.0625    0.0625
  band No.  band energies     occupation
      1      -6.2372      2.00000
      2       4.8107      2.00000
      3       5.2660      1.99749
      4       5.2660      1.99749
      5       7.8853      0.00000
      6       8.0099      0.00000
      7       8.0099      0.00000
      8       8.6275      0.00000

[...]

 k-point    60 :      -0.4375    0.4375    0.4375
  band No.  band energies     occupation
      1      -3.9240      2.00000
      2      -1.2952      2.00000
      3       3.0213      2.00000
      4       3.9609      2.00000
      5       7.4957      0.00000
      6       8.8384      0.00000
      7       9.2975      0.00000
      8      13.3783      0.00000

 soft charge-density along one line, spin component           1
         0         1         2         3         4         5         6         7         8         9
 total charge-density along one line

------------------------ aborting loop because EDIFF is reached ----------------------------------------

  FORCE on cell =-STRESS in cart. coord.  units (eV):
  Direction    XX          YY          ZZ          XY          YZ          ZX
  Alpha Z     3.20393     3.20393     3.20393
  Ewald     -74.95872   -74.95872   -74.95872     0.00000     0.00000     0.00000
  Hartree     5.16712     5.16712     5.16712     0.00000     0.00000     0.00000
  E(xc)     -25.09010   -25.09010   -25.09010    -0.00000    -0.00000    -0.00000
  Local     -29.92600   -29.92600   -29.92600     0.00004     0.00004     0.00004
  n-local    76.89869    79.44442    74.70140     1.01629    -1.10616     0.04624
  augment   -11.64853   -11.64853   -11.64853    -0.00003    -0.00003    -0.00003
  Kinetic    57.04758    55.35420    54.48348     0.83625    -0.93177     0.04732
  Fock        0.00000     0.00000     0.00000     0.00000     0.00000     0.00000
  Total      -0.60904    -0.60904    -0.60904    -0.00000    -0.00000     0.00000
  in kB     -23.21795   -23.21795   -23.21795    -0.00000    -0.00000     0.00000

 VOLUME and BASIS-vectors are now :
  energy-cutoff  :      350.00
  volume of cell :       42.03
      direct lattice vectors                 reciprocal lattice vectors
     0.000000000  2.759520000  2.759520000    -0.181190932  0.181190932  0.181190932
     2.759520000  0.000000000  2.759520000     0.181190932 -0.181190932  0.181190932
     2.759520000  2.759520000  0.000000000     0.181190932  0.181190932 -0.181190932

  length of vectors
     3.902550610  3.902550610  3.902550610     0.313831900  0.313831900  0.313831900

 FORCES acting on ions
    electron-ion (+dipol)            ewald-force                    non-local-force                 convergence-correction
   0.168E-05 0.168E-05 0.173E-05   -.393E-15 -.270E-15 -.172E-14   -.274E-17 0.727E-18 0.498E-17   -.478E-06 -.478E-06 -.478E-06
   -.168E-05 -.168E-05 -.173E-05   0.115E-15 0.232E-15 0.232E-14   0.440E-17 0.933E-18 0.221E-17   0.478E-06 0.478E-06 0.478E-06
   -.997E-13 -.117E-12 -.606E-13   -.279E-15 -.371E-16 0.601E-15   0.166E-17 0.166E-17 0.719E-17   -.100E-14 0.333E-14 -.145E-14

 POSITION                                       TOTAL-FORCE (eV/Angst)
      2.75952      2.75952      2.75952         0.000000      0.000000     -0.000000
      4.13928      4.13928      4.13928        -0.000000     -0.000000      0.000000
    total drift:                               -0.000000     -0.000000     -0.000000

  FREE ENERGIE OF THE ION-ELECTRON SYSTEM (eV)
  free  energy   TOTEN  =       -10.83946378 eV

  energy  without entropy=      -10.83944308  energy(sigma->0) =      -10.83945343

 reached required accuracy - stopping structural energy minimisation
 writing wavefunctions