 vasp.5.4.4.18Apr17-6-g9f103f2a35 (build Dec 09 2018 21:25:21) complex

 executed on IFC18.0.1.163_CrayMP date 2019.03.20  09:07:30

 INCAR:
 POTCAR:   PAW_PBE Si 05Jan2001

 POTCAR:   PAW_PBE Si 05Jan2001
   VRHFIN =Si: s2p2

   TITEL  = PAW_PBE Si 05Jan2001
   POMASS =   28.085; ZVAL   =    4.000    mass and valenz
   ENMAX  =  245.345; ENMIN  =  184.009 eV
   QCUT   =   -4.246; QGAM   =    8.493    optimization parameters

   Description
     l     E      TYP  RCUT    TYP  RCUT
     0   .000     23  1.900
     0   .000     23  1.900
     1   .000     23  1.900
     1   .000     23  1.900
     2   .000      7  1.900

 PAW_PBE Si 05Jan2001                   :

 POSCAR: Si2
  positions in direct lattice
 exchange correlation table for  LEXCH =        8
   RHO(1)=    0.500       N(1)  =     2000
   RHO(2)=  100.500       N(2)  =     4000

 ion  position               nearest neighbor table
   1  0.250  0.750  0.500-   2 2.53   2 2.53   2 2.53   2 2.53   2 3.11   2 3.11   2 3.11   2 3.11

   2  0.000  0.000  0.000-   1 2.53   1 2.53   1 2.53   1 2.53   1 3.11   1 3.11   1 3.11   1 3.11

  LATTYP: Found a body centered tetragonal cell.
 ALAT       =     4.9000000000
 C/A-ratio  =     0.5200000000

  Lattice vectors:

 A1 = (  -2.4500000000,   2.4500000000,   1.2740000000)
 A2 = (   2.4500000000,  -2.4500000000,   1.2740000000)
 A3 = (   2.4500000000,   2.4500000000,  -1.2740000000)

Analysis of symmetry for initial positions (statically):
 Subroutine PRICEL returns:
 Original cell was already a primitive cell.

 Routine SETGRP: Setting up the symmetry group for a
 body centered tetragonal supercell.

 Subroutine GETGRP returns: Found 16 space group operations
 (whereof  8 operations were pure point group operations)
 out of a pool of 16 trial point group operations.

The static configuration has the point symmetry D_2d.
 The point group associated with its full space group is D_4h.

Analysis of symmetry for dynamics (positions and initial velocities):
 Subroutine PRICEL returns:
 Original cell was already a primitive cell.

 Routine SETGRP: Setting up the symmetry group for a
 body centered tetragonal supercell.

 Subroutine GETGRP returns: Found 16 space group operations
 (whereof  8 operations were pure point group operations)
 out of a pool of 16 trial point group operations.

The dynamic configuration has the point symmetry D_2d.
 The point group associated with its full space group is D_4h.

 Subroutine INISYM returns: Found 16 space group operations
 (whereof  8 operations are pure point group operations),
 and found     1 'primitive' translations

 KPOINTS: Automatic kpoint scheme

Automatic generation of k-mesh.
Space group operators:
 irot       det(A)        alpha          n_x          n_y          n_z        tau_x        tau_y        tau_z
    1     1.000000     0.000000     1.000000     0.000000     0.000000     0.000000     0.000000     0.000000
    2    -1.000000    90.000000    -0.000000    -0.000000    -1.000000     0.000000     0.000000     0.000000
    3     1.000000   180.000000    -0.000000    -0.000000    -1.000000     0.000000     0.000000     0.000000
    4    -1.000000    90.000000    -0.000000     0.000000     1.000000     0.000000     0.000000     0.000000
    5    -1.000000   180.000000     0.000000    -1.000000     0.000000     0.000000     0.000000     0.000000
    6     1.000000   180.000000     0.707107     0.707107    -0.000000     0.000000     0.000000     0.000000
    7    -1.000000   180.000000     1.000000     0.000000     0.000000     0.000000     0.000000     0.000000
    8     1.000000   180.000000     0.707107    -0.707107     0.000000     0.000000     0.000000     0.000000
    9    -1.000000     0.000000     1.000000     0.000000     0.000000     0.250000     0.750000     0.500000
   10     1.000000    90.000000    -0.000000    -0.000000    -1.000000     0.250000     0.750000     0.500000
   11    -1.000000   180.000000    -0.000000    -0.000000    -1.000000     0.250000     0.750000     0.500000
   12     1.000000    90.000000    -0.000000     0.000000     1.000000     0.250000     0.750000     0.500000
   13     1.000000   180.000000     0.000000    -1.000000     0.000000     0.250000     0.750000     0.500000
   14    -1.000000   180.000000     0.707107     0.707107    -0.000000     0.250000     0.750000     0.500000
   15     1.000000   180.000000     1.000000     0.000000     0.000000     0.250000     0.750000     0.500000
   16    -1.000000   180.000000     0.707107    -0.707107     0.000000     0.250000     0.750000     0.500000

 Subroutine IBZKPT returns following result:

 Found     11 irreducible k-points:

 Following reciprocal coordinates:
            Coordinates               Weight
  0.125000  0.125000  0.125000    128.000000
  0.375000  0.125000  0.125000    128.000000
 -0.125000  0.125000  0.125000     64.000000
  0.375000  0.375000  0.125000     64.000000
 -0.375000  0.375000  0.125000    128.000000
 -0.125000  0.375000  0.125000    128.000000
 -0.375000 -0.375000  0.125000    128.000000
 -0.125000 -0.375000  0.125000    128.000000
 -0.125000 -0.125000  0.125000     32.000000
 -0.375000  0.375000  0.375000     64.000000
 -0.375000 -0.375000  0.375000     32.000000

 Following cartesian coordinates:
            Coordinates               Weight
  0.051020  0.051020  0.098116    128.000000
  0.051020  0.102041  0.196232    128.000000
  0.051020  0.000000  0.000000     64.000000
  0.102041  0.102041  0.294349     64.000000
  0.102041 -0.051020  0.000000    128.000000
  0.102041  0.000000  0.098116    128.000000
 -0.051020 -0.051020 -0.294349    128.000000
 -0.051020  0.000000 -0.196232    128.000000
 -0.000000  0.000000 -0.098116     32.000000
  0.153061  0.000000  0.000000     64.000000
  0.000000  0.000000 -0.294349     32.000000

 SYSTEM =  unknown system
 POSCAR =  Si2

 Startparameter for this run:
   NWRITE =      2    write-flag & timer
   PREC   = normal    normal or accurate (medium, high low for compatibility)
   ISTART =      0    job   : 0-new  1-cont  2-samecut
   ICHARG =      2    charge: 1-file 2-atom 10-const
   ISPIN  =      1    spin polarized calculation?
   LNONCOLLINEAR =      F non collinear calculations
   LSORBIT =      F    spin-orbit coupling
   INIWAV =      1    electr: 0-lowe 1-rand  2-diag
   LASPH  =      F    aspherical Exc in radial PAW
   METAGGA=      F    non-selfconsistent MetaGGA calc.

 Electronic Relaxation 1
   ENCUT  =  150.0 eV  11.02 Ry    3.32 a.u.   3.69  3.69  3.69*2*pi/ulx,y,z
   ENINI  =  150.0     initial cutoff
   ENAUG  =  322.1 eV  augmentation charge cutoff
   NELM   =     60;   NELMIN=  2; NELMDL= -5     # of ELM steps
   EDIFF  = 0.4E-03   stopping-criterion for ELM
   LREAL  =      F    real-space projection
   NLSPLINE    = F    spline interpolate recip. space projectors
   LCOMPAT=      F    compatible to vasp.4.4
   GGA_COMPAT  = T    GGA compatible to vasp.4.4-vasp.4.6
   LMAXPAW     = -100 max onsite density
   LMAXMIX     =    2 max onsite mixed and CHGCAR
   VOSKOWN=      0    Vosko Wilk Nusair interpolation
   ROPT   =    0.00000
 Ionic relaxation
   EDIFFG = -.1E-01   stopping-criterion for IOM
   NSW    =     15    number of steps for IOM
   NBLOCK =      1;   KBLOCK =     15    inner block; outer block
   IBRION =      2    ionic relax: 0-MD 1-quasi-New 2-CG
   NFREE  =      1    steps in history (QN), initial steepest desc. (CG)
   ISIF   =      3    stress and relaxation
   IWAVPR =     11    prediction:  0-non 1-charg 2-wave 3-comb
   ISYM   =      2    0-nonsym 1-usesym 2-fastsym
   LCORR  =      T    Harris-Foulkes like correction to forces

   POTIM  = 0.5000    time-step for ionic-motion
   TEIN   =    0.0    initial temperature
   TEBEG  =    0.0;   TEEND  =   0.0 temperature during run
   SMASS  =  -3.00    Nose mass-parameter (am)
   estimated Nose-frequenzy (Omega)   =  0.10E-29 period in steps =****** mass=  -0.311E-27a.u.
   SCALEE = 1.0000    scale energy and forces
   NPACO  =    256;   APACO  = 16.0  distance and # of slots for P.C.
   PSTRESS=    0.0 pullay stress

  Mass of Ions in am
   POMASS =  28.09
  Ionic Valenz
   ZVAL   =   4.00
  Atomic Wigner-Seitz radii
  virtual crystal weights
   VCA    =   1.00
   NELECT =       8.0000    total number of electrons
   NUPDOWN=      -1.0000    fix difference up-down

 DOS related values:
   EMIN   =  10.00;   EMAX   =-10.00  energy-range for DOS
   EFERMI =   0.00
   ISMEAR =     0;   SIGMA  =   0.20  broadening in eV -4-tet -1-fermi 0-gaus

 Electronic relaxation 2 (details)
   IALGO  =     38    algorithm
   LDIAG  =      T    sub-space diagonalisation (order eigenvalues)
   LSUBROT=      F    optimize rotation matrix (better conditioning)
   TURBO    =      0    0=normal 1=particle mesh
   IRESTART =      0    0=no restart 2=restart with 2 vectors
   NREBOOT  =      0    no. of reboots
   NMIN     =      0    reboot dimension
   EREF     =   0.00    reference energy to select bands
   IMIX   =      4    mixing-type and parameters
     AMIX     =   0.40;   BMIX     =  1.00
     AMIX_MAG =   1.60;   BMIX_MAG =  1.00
     AMIN     =   0.10
     WC   =   100.;   INIMIX=   1;  MIXPRE=   1;  MAXMIX= -45

 Intra band minimization:
   WEIMIN = 0.0010     energy-eigenvalue tresh-hold
   EBREAK =  0.13E-04  absolut break condition
   DEPER  =   0.30     relativ break condition

   TIME   =   0.40     timestep for ELM

  volume/ion in A,a.u.               =      15.29       103.21
  Fermi-wavevector in a.u.,A,eV,Ry     =   1.046930  1.978411 14.912834  1.096062
  Thomas-Fermi vector in A             =   2.181789

 Write flags
   LWAVE        =      T    write WAVECAR
   LDOWNSAMPLE  =      F    k-point downsampling of WAVECAR
   LCHARG       =      T    write CHGCAR
   LVTOT        =      F    write LOCPOT, total local potential
   LVHAR        =      F    write LOCPOT, Hartree potential only
   LELF         =      F    write electronic localiz. function (ELF)
   LORBIT       =      0    0 simple, 1 ext, 2 COOP (PROOUT), +10 PAW based schemes

 Dipole corrections
   LMONO  =      F    monopole corrections only (constant potential shift)
   LDIPOL =      F    correct potential (dipole corrections)
   IDIPOL =      0    1-x, 2-y, 3-z, 4-all directions
   EPSILON=  1.0000000 bulk dielectric constant

 Exchange correlation treatment:
   GGA     =    --    GGA type
   VOSKOWN=      0    Vosko Wilk Nusair interpolation
   LHFCALC =     F    Hartree Fock is set to
   LHFONE  =     F    Hartree Fock one center treatment
   AEXX    =    0.0000 exact exchange contribution

 Linear response parameters
   LEPSILON=     F    determine dielectric tensor
   LRPA    =     F    only Hartree local field effects (RPA)
   LNABLA  =     F    use nabla operator in PAW spheres
   LVEL    =     F    velocity operator in full k-point grid
   LINTERFAST=   F  fast interpolation
   KINTER  =     0    interpolate to denser k-point grid
   CSHIFT  =0.1000    complex shift for real part using Kramers Kronig
   OMEGAMAX=  -1.0    maximum frequency
   DEG_THRESHOLD= 0.2000000E-02 threshold for treating states as degnerate
   RTIME   =   -0.100 relaxation time in fs
  (WPLASMAI=    0.000 imaginary part of plasma frequency in eV, 0.658/RTIME)
[...]
 charge density and potential will be updated during run
 non-spin polarized calculation
 Variant of blocked Davidson
 Davidson routine will perform the subspace rotation
 perform sub-space diagonalisation
    after iterative eigenvector-optimisation
 modified Broyden-mixing scheme, WC =      100.0
 initial mixing is a Kerker type mixing with AMIX =  0.4000 and BMIX =      1.0000
 Hartree-type preconditioning will be used
 using additional bands            4
 reciprocal scheme for non local part
 use partial core corrections
 calculate Harris-corrections to forces
   (improved forces if not selfconsistent)
 use gradient corrections
 use of overlap-Matrix (Vanderbilt PP)
 Gauss-broadening in eV      SIGMA  =   0.20

  energy-cutoff  :      150.00
  volume of cell :       30.59
      direct lattice vectors                 reciprocal lattice vectors
    -2.450000000  2.450000000  1.274000000     0.000000000  0.204081633  0.392464678
     2.450000000 -2.450000000  1.274000000     0.204081633  0.000000000  0.392464678
     2.450000000  2.450000000 -1.274000000     0.204081633  0.204081633 -0.000000000

  length of vectors
     3.691622408  3.691622408  3.691622408     0.442354876  0.442354876  0.288615013

 k-points in units of 2pi/SCALE and weight: Automatic kpoint scheme
   0.05102041  0.05102041  0.09811617       0.125
   0.05102041  0.10204082  0.19623234       0.125
   0.05102041  0.00000000 -0.00000000       0.062
   0.10204082  0.10204082  0.29434851       0.062
   0.10204082 -0.05102041  0.00000000       0.125
   0.10204082  0.00000000  0.09811617       0.125
  -0.05102041 -0.05102041 -0.29434851       0.125
  -0.05102041 -0.00000000 -0.19623234       0.125
   0.00000000  0.00000000 -0.09811617       0.031
   0.15306122  0.00000000  0.00000000       0.062
   0.00000000 -0.00000000 -0.29434851       0.031

 k-points in reciprocal lattice and weights: Automatic kpoint scheme
   0.12500000  0.12500000  0.12500000       0.125
   0.37500000  0.12500000  0.12500000       0.125
  -0.12500000  0.12500000  0.12500000       0.062
   0.37500000  0.37500000  0.12500000       0.062
  -0.37500000  0.37500000  0.12500000       0.125
  -0.12500000  0.37500000  0.12500000       0.125
  -0.37500000 -0.37500000  0.12500000       0.125
  -0.12500000 -0.37500000  0.12500000       0.125
  -0.12500000 -0.12500000  0.12500000       0.031
  -0.37500000  0.37500000  0.37500000       0.062
  -0.37500000 -0.37500000  0.37500000       0.031

 position of ions in fractional coordinates (direct lattice)
   0.25000000  0.75000000  0.50000000
   0.00000000  0.00000000  0.00000000

 position of ions in cartesian coordinates  (Angst):
   2.45000000  0.00000000  0.63700000
   0.00000000  0.00000000  0.00000000

 k-point  1 :   0.1250 0.1250 0.1250  plane waves:     131
 k-point  2 :   0.3750 0.1250 0.1250  plane waves:     128
 k-point  3 :  -0.1250 0.1250 0.1250  plane waves:     133
 k-point  4 :   0.3750 0.3750 0.1250  plane waves:     128
 k-point  5 :  -0.3750 0.3750 0.1250  plane waves:     126
 k-point  6 :  -0.1250 0.3750 0.1250  plane waves:     128
 k-point  7 :  -0.3750-0.3750 0.1250  plane waves:     127
 k-point  8 :  -0.1250-0.3750 0.1250  plane waves:     120
 k-point  9 :  -0.1250-0.1250 0.1250  plane waves:     131
 k-point 10 :  -0.3750 0.3750 0.3750  plane waves:     133
 k-point 11 :  -0.3750-0.3750 0.3750  plane waves:     126

 maximum and minimum number of plane-waves per node :       133      120

 maximum number of plane-waves:       133
 maximum index in each direction:
   IXMAX=    4   IYMAX=    4   IZMAX=    3
   IXMIN=   -4   IYMIN=   -4   IZMIN=   -4

 serial   3D FFT for wavefunctions
 parallel 3D FFT for charge:
    minimum data exchange during FFTs selected (reduces bandwidth)

 Broyden mixing: mesh for mixing (old mesh)
   NGX =  7   NGY =  7   NGZ =  7
  (NGX  = 24   NGY  = 24   NGZ  = 24)
  gives a total of    343 points

 initial charge density was supplied:
 charge density of overlapping atoms calculated
 number of electron       8.0000000 magnetization
 keeping initial charge density in first step

 Maximum index for augmentation-charges          241 (set IRDMAX)

 First call to EWALD:  gamma=   0.567
 Maximum number of real-space cells 4x 4x 3
 Maximum number of reciprocal cells 3x 3x 3

--------------------------------------- Iteration      1(   1)  ---------------------------------------

 eigenvalue-minimisations  :   184
 total energy-change (2. order) :-0.5034225E+01  (-0.1776515E+03)
 number of electron       8.0000000 magnetization
 augmentation part        8.0000000 magnetization

 Free energy of the ion-electron system (eV)
  alpha Z        PSCENC =         4.40202223
  Ewald energy   TEWEN  =      -265.18101312
  -Hartree energ DENC   =        -2.30415367
  -exchange      EXHF   =         0.00000000
  -V(xc)+E(xc)   XCENC  =       -17.81530915
  PAW double counting   =        65.95520812      -30.76852678
  entropy T*S    EENTRO =        -0.01982468
  eigenvalues    EBANDS =        34.60553544
  atomic energy  EATOM  =       206.09183643
  Solvation  Ediel_sol  =         0.00000000
  free energy    TOTEN  =        -5.03422519 eV

  energy without entropy =       -5.01440051  energy(sigma->0) =       -5.02431285

[...]

 Broyden mixing:
  rms(total) = 0.14974E+00    rms(broyden)= 0.14964E+00
  rms(prec ) = 0.33664E+00
  weight for this iteration     100.00

[...]

 eigenvalue-minimisations  :   224
 total energy-change (2. order) : 0.8075443E-02  (-0.1679268E-03)
 number of electron       8.0000045 magnetization
 augmentation part       -0.4680487 magnetization

[...]

 eigenvalues of (default mixing * dielectric matrix)
  average eigenvalue GAMMA=   2.6574
  2.6574

[...]

 average (electrostatic) potential at core
  the test charge radii are     0.9892
  (the norm of the test charge is              1.0000)
       1 -80.5433       2 -80.5433

 E-fermi :   9.2763     XC(G=0): -10.8919     alpha+bet :-15.6819

 k-point     1 :       0.1250    0.1250    0.1250
  band No.  band energies     occupation
      1      -2.4868      2.00000
      2       3.2318      2.00000
      3       8.0870      2.00000
      4       9.6018      0.02136
      5      11.2488      0.00000
      6      11.3511      0.00000
      7      14.4365      0.00000
      8      15.1314      0.00000

[...]

 soft charge-density along one line, spin component           1
         0         1         2         3         4         5         6         7         8         9
 total charge-density along one line

------------------------ aborting loop because EDIFF is reached ----------------------------------------

  FORCE on cell =-STRESS in cart. coord.  units (eV):
  Direction    XX          YY          ZZ          XY          YZ          ZX
  Alpha Z     4.40202     4.40202     4.40202
  Ewald     -90.96023   -90.96023   -83.26083    -0.00000     0.00000     0.00000
  Hartree     0.56679     0.56679     1.39413     0.00000    -0.00000    -0.00000
  E(xc)     -25.44621   -25.44621   -25.38433     0.00012     0.00007     0.00007
  Local     -11.55234   -11.55234   -17.31363    -0.00004    -0.00012    -0.00012
  n-local    77.48704    77.80124    76.78455    -0.26888    -0.24823    -0.34200
  augment   -11.99919   -11.99919   -11.95784     0.00008     0.00008     0.00008
  Kinetic    54.77338    57.91667    58.46606     1.02063    -0.71133    -0.85407
  Fock        0.00000     0.00000     0.00000     0.00000     0.00000     0.00000
  Total      -0.99999    -0.99999     3.13011     0.00000    -0.00000     0.00000
  in kB     -52.37761   -52.37761   163.94908     0.00000    -0.00000     0.00000

 VOLUME and BASIS-vectors are now :
  energy-cutoff  :      150.00
  volume of cell :       30.59
      direct lattice vectors                 reciprocal lattice vectors
    -2.450000000  2.450000000  1.274000000     0.000000000  0.204081633  0.392464678
     2.450000000 -2.450000000  1.274000000     0.204081633  0.000000000  0.392464678
     2.450000000  2.450000000 -1.274000000     0.204081633  0.204081633 -0.000000000

[...]

 FORCES acting on ions
    electron-ion (+dipol)            ewald-force                    non-local-force                 convergence-correction
   -.288E-04 0.288E-04 0.937E-15   0.198E-14 0.156E-15 0.342E-17   -.403E-16 0.430E-16 0.384E-16   -.389E-06 0.389E-06 -.418E-16
   0.288E-04 -.288E-04 -.795E-14   -.185E-14 0.943E-16 0.891E-15   0.577E-17 -.359E-16 -.615E-16   0.389E-06 -.389E-06 -.180E-15
   -.766E-14 -.700E-15 -.701E-14   0.139E-15 0.250E-15 0.894E-15   -.345E-16 0.711E-17 -.231E-16   0.142E-15 0.161E-15 -.222E-15

 POSITION                                       TOTAL-FORCE (eV/Angst)
      2.45000      0.00000      0.63700         0.000000     -0.000000      0.000000
      0.00000      0.00000      0.00000        -0.000000      0.000000     -0.000000
    total drift:                               -0.000000     -0.000000     -0.000000

  FREE ENERGIE OF THE ION-ELECTRON SYSTEM (eV)
  free  energy   TOTEN  =        -9.86893424 eV

  energy  without entropy=       -9.85498895  energy(sigma->0) =       -9.86196159

[...]

 d Force = 0.0000000E+00[ 0.000E+00, 0.000E+00]  d Energy = 0.2451005E+00-0.245E+00
 d Force = 0.0000000E+00[ 0.000E+00, 0.000E+00]  d Ewald  =-0.2125970E+01 0.213E+01

 Steepest descent step on ions:
 trial-energy change:   -0.245100  1 .order   -0.232728   -0.284573   -0.180884
  (g-gl).g = 0.285E+00      g.g   = 0.285E+00  gl.gl    = 0.000E+00
 g(Force)  = 0.471E-43   g(Stress)= 0.285E+00 ortho     = 0.000E+00
 gamma     =   0.00000
 trial     =   1.00000
 opt step  =   1.76956  (harmonic =   2.74447) maximal distance =0.00000000
 next E    =   -10.189273   (d E  =  -0.32034)

[...]

 d Force = 0.0000000E+00[ 0.000E+00, 0.000E+00]  d Energy =-0.9219108E-01 0.922E-01
 d Force = 0.0000000E+00[ 0.000E+00, 0.000E+00]  d Ewald  =-0.3783620E+01 0.378E+01

[...]

 d Force = 0.0000000E+00[ 0.000E+00, 0.000E+00]  d Energy = 0.1039904E+00-0.104E+00
 d Force = 0.0000000E+00[ 0.000E+00, 0.000E+00]  d Ewald  = 0.2793198E+01-0.279E+01

[...]

 d Force = 0.0000000E+00[ 0.000E+00, 0.000E+00]  d Energy =-0.2685569E-02 0.269E-02
 d Force = 0.0000000E+00[ 0.000E+00, 0.000E+00]  d Ewald  = 0.4136056E+00-0.414E+00

[...]

 Conjugate gradient step on ions:
 trial-energy change:    0.002814  1 .order    0.002996   -0.021582    0.027574
  (g-gl).g = 0.159E-01      g.g   = 0.177E-01  gl.gl    = 0.285E+00
 g(Force)  = 0.130E-43   g(Stress)= 0.177E-01 ortho     = 0.184E-02
 gamma     =   0.05579
 trial     =   1.21137
 opt step  =   0.53185  (harmonic =   0.53185) maximal distance =0.00000000
 next E    =   -10.226179   (d E  =  -0.00474)

[...]

 d Force = 0.0000000E+00[ 0.000E+00, 0.000E+00]  d Energy = 0.3865689E-03-0.387E-03
 d Force = 0.0000000E+00[ 0.000E+00, 0.000E+00]  d Ewald  = 0.2676656E+00-0.268E+00

 Conjugate gradient step on ions:
 trial-energy change:   -0.000387  1 .order   -0.000439   -0.000526   -0.000352
  (g-gl).g =-0.228E-03      g.g   = 0.489E-03  gl.gl    = 0.177E-01
 g(Force)  = 0.160E-44   g(Stress)= 0.489E-03 ortho     = 0.832E-04
 gamma     =  -0.01288
 trial     =   1.07704
 opt step  =   3.25938  (harmonic =   3.25938) maximal distance =0.00000000
 next E    =   -10.227093   (d E  =  -0.00080)

[...]

 eigenvalues of (default mixing * dielectric matrix)
  average eigenvalue GAMMA=   2.3107
  2.3107

[...]

 d Force = 0.0000000E+00[ 0.000E+00, 0.000E+00]  d Energy =-0.7789022E-03 0.779E-03
 d Force = 0.0000000E+00[ 0.000E+00, 0.000E+00]  d Ewald  = 0.5433922E+00-0.543E+00

[...]

 eigenvalue-minimisations  :   240
 total energy-change (2. order) :-0.8612599E-03  (-0.2662190E-02)
 number of electron       7.9999961 magnetization
 augmentation part       -0.4652572 magnetization

[...]

 d Force = 0.0000000E+00[ 0.000E+00, 0.000E+00]  d Energy = 0.8485142E-03-0.849E-03
 d Force = 0.0000000E+00[ 0.000E+00, 0.000E+00]  d Ewald  =-0.3897031E+00 0.390E+00

[...]

 Broyden mixing:
  rms(total) = 0.19207E-02    rms(broyden)= 0.19174E-02
  rms(prec ) = 0.63139E-02
  weight for this iteration     100.00

[...]

--------------------------------------- Iteration     15(   2)  ---------------------------------------

 eigenvalue-minimisations  :    88
 total energy-change (2. order) : 0.1078477E-04  (-0.1712952E-05)
 number of electron       7.9999960 magnetization
 augmentation part       -0.4651912 magnetization

 Free energy of the ion-electron system (eV)
  alpha Z        PSCENC =         4.30850002
  Ewald energy   TEWEN  =      -262.33971738
  -Hartree energ DENC   =        -3.11225422
  -exchange      EXHF   =         0.00000000
  -V(xc)+E(xc)   XCENC  =       -17.58856742
  PAW double counting   =        72.96628506      -37.90859716
  entropy T*S    EENTRO =        -0.01762446
  eigenvalues    EBANDS =        27.37348843
  atomic energy  EATOM  =       206.09183643
  Solvation  Ediel_sol  =         0.00000000
  free energy    TOTEN  =       -10.22665069 eV

  energy without entropy =      -10.20902624  energy(sigma->0) =      -10.21783847

 average (electrostatic) potential at core
  the test charge radii are     0.9892
  (the norm of the test charge is              1.0000)
       1 -80.8377       2 -80.8377

 E-fermi :   8.6480     XC(G=0): -10.7919     alpha+bet :-15.3488

[...]

 k-point    11 :      -0.3750   -0.3750    0.3750
  band No.  band energies     occupation
      1       1.9007      2.00000
      2       2.5031      2.00000
      3       3.3742      2.00000
      4       3.3742      2.00000
      5       5.4846      2.00000
      6      16.3039      0.00000
      7      16.9724      0.00000
      8      16.9724      0.00000

 soft charge-density along one line, spin component           1
         0         1         2         3         4         5         6         7         8         9
 total charge-density along one line

------------------------ aborting loop because EDIFF is reached ----------------------------------------

  FORCE on cell =-STRESS in cart. coord.  units (eV):
  Direction    XX          YY          ZZ          XY          YZ          ZX
  Alpha Z     4.30850     4.30850     4.30850
  Ewald     -80.73862   -80.73862  -100.86265    -0.00000     0.00000    -0.00000
  Hartree     1.56305     1.56305    -0.00605     0.00000    -0.00000    -0.00000
  E(xc)     -25.47308   -25.47308   -25.20782     0.00005     0.00004     0.00004
  Local     -22.27562   -22.27562     1.18203    -0.00005    -0.00011    -0.00011
  n-local    79.28829    78.80528    73.44149     0.11834    -0.39186    -0.67606
  augment   -11.98118   -11.98118   -11.56754     0.00009     0.00009     0.00009
  Kinetic    50.34719    60.75522    58.72488     1.63656     0.13773     0.22737
  Fock        0.00000     0.00000     0.00000     0.00000     0.00000     0.00000
  Total       0.00104     0.00104     0.01284     0.00000     0.00000     0.00000
  in kB       0.05352     0.05352     0.65836     0.00000     0.00000     0.00000

 VOLUME and BASIS-vectors are now :
  energy-cutoff  :      150.00
  volume of cell :       31.25
      direct lattice vectors                 reciprocal lattice vectors
    -2.311557666  2.311557666  1.462238670     0.000000000  0.216304359  0.341941442
     2.311557666 -2.311557666  1.462238670     0.216304359  0.000000000  0.341941442
     2.311557666  2.311557666 -1.462238670     0.216304359  0.216304359  0.000000000

  length of vectors
     3.581164561  3.581164561  3.581164561     0.404612810  0.404612810  0.305900559

 FORCES acting on ions
    electron-ion (+dipol)            ewald-force                    non-local-force                 convergence-correction
   -.808E-05 0.808E-05 -.158E-13   -.104E-13 0.217E-14 -.439E-14   -.495E-16 0.546E-16 -.550E-16   -.276E-06 0.276E-06 -.594E-15
   0.808E-05 -.808E-05 0.518E-14   0.105E-13 -.232E-14 0.454E-14   0.684E-16 -.288E-16 0.619E-16   0.276E-06 -.276E-06 0.369E-15
   -.711E-14 0.656E-14 -.106E-13   0.704E-16 -.152E-15 0.153E-15   0.189E-16 0.258E-16 0.682E-17   -.171E-15 0.107E-15 -.225E-15

 POSITION                                       TOTAL-FORCE (eV/Angst)
      2.31156     -0.00000      0.73112        -0.000000     -0.000000     -0.000000
     -0.00000      0.00000     -0.00000         0.000000      0.000000      0.000000
    total drift:                               -0.000000      0.000000     -0.000000

  FREE ENERGIE OF THE ION-ELECTRON SYSTEM (eV)
  free  energy   TOTEN  =       -10.22665069 eV

  energy  without entropy=      -10.20902624  energy(sigma->0) =      -10.21783847

 d Force = 0.0000000E+00[ 0.000E+00, 0.000E+00]  d Energy =-0.1034790E-03 0.103E-03
 d Force = 0.0000000E+00[ 0.000E+00, 0.000E+00]  d Ewald  =-0.8833823E-01 0.883E-01

 reached required accuracy - stopping structural energy minimisation
 writing wavefunctions