 vasp.5.4.4.18Apr17-6-g9f103f2a35 (build Dec 09 2018 21:25:21) complex

 executed on IFC18.0.1.163_CrayMP date 2019.03.20  09:21:13

 INCAR:
 POTCAR:   PAW_PBE Si 05Jan2001

 POTCAR:   PAW_PBE Si 05Jan2001
   VRHFIN =Si: s2p2

   TITEL  = PAW_PBE Si 05Jan2001
   POMASS =   28.085; ZVAL   =    4.000    mass and valenz
   ENMAX  =  245.345; ENMIN  =  184.009 eV
   QCUT   =   -4.246; QGAM   =    8.493    optimization parameters

   Description
     l     E      TYP  RCUT    TYP  RCUT
     0   .000     23  1.900
     0   .000     23  1.900
     1   .000     23  1.900
     1   .000     23  1.900
     2   .000      7  1.900

 PAW_PBE Si 05Jan2001                   :

 POSCAR: Si2
  positions in direct lattice
 exchange correlation table for  LEXCH =        8
   RHO(1)=    0.500       N(1)  =     2000
   RHO(2)=  100.500       N(2)  =     4000

 ion  position               nearest neighbor table
   1  0.250  0.750  0.500-   2 2.53   2 2.53   2 2.53   2 2.53   2 3.11   2 3.11   2 3.11   2 3.11

   2  0.000  0.000  0.000-   1 2.53   1 2.53   1 2.53   1 2.53   1 3.11   1 3.11   1 3.11   1 3.11

  LATTYP: Found a body centered tetragonal cell.
 ALAT       =     4.9000000000
 C/A-ratio  =     0.5200000000

  Lattice vectors:

 A1 = (  -2.4500000000,   2.4500000000,   1.2740000000)
 A2 = (   2.4500000000,  -2.4500000000,   1.2740000000)
 A3 = (   2.4500000000,   2.4500000000,  -1.2740000000)

Analysis of symmetry for initial positions (statically):
 Subroutine PRICEL returns:
 Original cell was already a primitive cell.

 Routine SETGRP: Setting up the symmetry group for a
 body centered tetragonal supercell.

 Subroutine GETGRP returns: Found 16 space group operations
 (whereof  8 operations were pure point group operations)
 out of a pool of 16 trial point group operations.

The static configuration has the point symmetry D_2d.
 The point group associated with its full space group is D_4h.

Analysis of symmetry for dynamics (positions and initial velocities):
 Subroutine PRICEL returns:
 Original cell was already a primitive cell.

 Routine SETGRP: Setting up the symmetry group for a
 body centered tetragonal supercell.

 Subroutine GETGRP returns: Found 16 space group operations
 (whereof  8 operations were pure point group operations)
 out of a pool of 16 trial point group operations.

The dynamic configuration has the point symmetry D_2d.
 The point group associated with its full space group is D_4h.

 Subroutine INISYM returns: Found 16 space group operations
 (whereof  8 operations are pure point group operations),
 and found     1 'primitive' translations

 KPOINTS: Automatic kpoint scheme

Automatic generation of k-mesh.
Space group operators:
 irot       det(A)        alpha          n_x          n_y          n_z        tau_x        tau_y        tau_z
    1     1.000000     0.000000     1.000000     0.000000     0.000000     0.000000     0.000000     0.000000
    2    -1.000000    90.000000    -0.000000    -0.000000    -1.000000     0.000000     0.000000     0.000000
    3     1.000000   180.000000    -0.000000    -0.000000    -1.000000     0.000000     0.000000     0.000000
    4    -1.000000    90.000000    -0.000000     0.000000     1.000000     0.000000     0.000000     0.000000
    5    -1.000000   180.000000     0.000000    -1.000000     0.000000     0.000000     0.000000     0.000000
    6     1.000000   180.000000     0.707107     0.707107    -0.000000     0.000000     0.000000     0.000000
    7    -1.000000   180.000000     1.000000     0.000000     0.000000     0.000000     0.000000     0.000000
    8     1.000000   180.000000     0.707107    -0.707107     0.000000     0.000000     0.000000     0.000000
    9    -1.000000     0.000000     1.000000     0.000000     0.000000     0.250000     0.750000     0.500000
   10     1.000000    90.000000    -0.000000    -0.000000    -1.000000     0.250000     0.750000     0.500000
   11    -1.000000   180.000000    -0.000000    -0.000000    -1.000000     0.250000     0.750000     0.500000
   12     1.000000    90.000000    -0.000000     0.000000     1.000000     0.250000     0.750000     0.500000
   13     1.000000   180.000000     0.000000    -1.000000     0.000000     0.250000     0.750000     0.500000
   14    -1.000000   180.000000     0.707107     0.707107    -0.000000     0.250000     0.750000     0.500000
   15     1.000000   180.000000     1.000000     0.000000     0.000000     0.250000     0.750000     0.500000
   16    -1.000000   180.000000     0.707107    -0.707107     0.000000     0.250000     0.750000     0.500000

 Subroutine IBZKPT returns following result:

 Found     18 irreducible k-points:

 Following reciprocal coordinates:
            Coordinates               Weight
  0.000000  0.000000  0.000000      1.000000
  0.200000  0.000000 -0.000000      8.000000
  0.400000  0.000000 -0.000000      8.000000
  0.200000  0.200000 -0.000000      8.000000
  0.400000  0.200000 -0.000000     16.000000
 -0.400000  0.200000  0.000000     16.000000
 -0.200000  0.200000  0.000000      4.000000
  0.400000  0.400000 -0.000000      8.000000
 -0.400000  0.400000  0.000000      4.000000
  0.200000  0.200000  0.200000      8.000000
 -0.200000  0.200000  0.200000      4.000000
 -0.400000  0.400000  0.200000      8.000000
 -0.200000  0.400000  0.200000      8.000000
 -0.400000 -0.400000  0.200000      8.000000
 -0.200000 -0.400000  0.200000      8.000000
 -0.200000 -0.200000  0.200000      2.000000
 -0.400000  0.400000  0.400000      4.000000
 -0.400000 -0.400000  0.400000      2.000000

 Following cartesian coordinates:
            Coordinates               Weight
  0.000000  0.000000  0.000000      1.000000
  0.000000  0.040816  0.078493      8.000000
  0.000000  0.081633  0.156986      8.000000
  0.040816  0.040816  0.156986      8.000000
  0.040816  0.081633  0.235479     16.000000
  0.040816 -0.081633 -0.078493     16.000000
  0.040816 -0.040816  0.000000      4.000000
  0.081633  0.081633  0.313972      8.000000
  0.081633 -0.081633  0.000000      4.000000
  0.081633  0.081633  0.156986      8.000000
  0.081633  0.000000 -0.000000      4.000000
  0.122449 -0.040816  0.000000      8.000000
  0.122449  0.000000  0.078493      8.000000
 -0.040816 -0.040816 -0.313972      8.000000
 -0.040816  0.000000 -0.235479      8.000000
 -0.000000  0.000000 -0.156986      2.000000
  0.163265  0.000000 -0.000000      4.000000
 -0.000000  0.000000 -0.313972      2.000000

 SYSTEM =  unknown system
 POSCAR =  Si2

 Startparameter for this run:
   NWRITE =      2    write-flag & timer
   PREC   = normal    normal or accurate (medium, high low for compatibility)
   ISTART =      0    job   : 0-new  1-cont  2-samecut
   ICHARG =      2    charge: 1-file 2-atom 10-const
   ISPIN  =      1    spin polarized calculation?
   LNONCOLLINEAR =      F non collinear calculations
   LSORBIT =      F    spin-orbit coupling
   INIWAV =      1    electr: 0-lowe 1-rand  2-diag
   LASPH  =      F    aspherical Exc in radial PAW
   METAGGA=      F    non-selfconsistent MetaGGA calc.

 Electronic Relaxation 1
   ENCUT  =  250.0 eV  18.37 Ry    4.29 a.u.   4.76  4.76  4.76*2*pi/ulx,y,z
   ENINI  =  250.0     initial cutoff
   ENAUG  =  322.1 eV  augmentation charge cutoff
   NELM   =     60;   NELMIN=  2; NELMDL= -5     # of ELM steps
   EDIFF  = 0.4E-03   stopping-criterion for ELM
   LREAL  =      F    real-space projection
   NLSPLINE    = F    spline interpolate recip. space projectors
   LCOMPAT=      F    compatible to vasp.4.4
   GGA_COMPAT  = T    GGA compatible to vasp.4.4-vasp.4.6
   LMAXPAW     = -100 max onsite density
   LMAXMIX     =    2 max onsite mixed and CHGCAR
   VOSKOWN=      0    Vosko Wilk Nusair interpolation
   ROPT   =    0.00000
 Ionic relaxation
   EDIFFG = -.1E-01   stopping-criterion for IOM
   NSW    =     15    number of steps for IOM
   NBLOCK =      1;   KBLOCK =     15    inner block; outer block
   IBRION =      2    ionic relax: 0-MD 1-quasi-New 2-CG
   NFREE  =      1    steps in history (QN), initial steepest desc. (CG)
   ISIF   =      3    stress and relaxation
   IWAVPR =     11    prediction:  0-non 1-charg 2-wave 3-comb
   ISYM   =      2    0-nonsym 1-usesym 2-fastsym
   LCORR  =      T    Harris-Foulkes like correction to forces

   POTIM  = 0.5000    time-step for ionic-motion
   TEIN   =    0.0    initial temperature
   TEBEG  =    0.0;   TEEND  =   0.0 temperature during run
   SMASS  =  -3.00    Nose mass-parameter (am)
   estimated Nose-frequenzy (Omega)   =  0.10E-29 period in steps =****** mass=  -0.311E-27a.u.
   SCALEE = 1.0000    scale energy and forces
   NPACO  =    256;   APACO  = 16.0  distance and # of slots for P.C.
   PSTRESS=    0.0 pullay stress

  Mass of Ions in am
   POMASS =  28.09
  Ionic Valenz
   ZVAL   =   4.00
  Atomic Wigner-Seitz radii
  virtual crystal weights
   VCA    =   1.00
   NELECT =       8.0000    total number of electrons
   NUPDOWN=      -1.0000    fix difference up-down

 DOS related values:
   EMIN   =  10.00;   EMAX   =-10.00  energy-range for DOS
   EFERMI =   0.00
   ISMEAR =     0;   SIGMA  =   0.20  broadening in eV -4-tet -1-fermi 0-gaus

 Electronic relaxation 2 (details)
   IALGO  =     38    algorithm
   LDIAG  =      T    sub-space diagonalisation (order eigenvalues)
   LSUBROT=      F    optimize rotation matrix (better conditioning)
   TURBO    =      0    0=normal 1=particle mesh
   IRESTART =      0    0=no restart 2=restart with 2 vectors
   NREBOOT  =      0    no. of reboots
   NMIN     =      0    reboot dimension
   EREF     =   0.00    reference energy to select bands
   IMIX   =      4    mixing-type and parameters
     AMIX     =   0.40;   BMIX     =  1.00
     AMIX_MAG =   1.60;   BMIX_MAG =  1.00
     AMIN     =   0.10
     WC   =   100.;   INIMIX=   1;  MIXPRE=   1;  MAXMIX= -45

 Intra band minimization:
   WEIMIN = 0.0010     energy-eigenvalue tresh-hold
   EBREAK =  0.13E-04  absolut break condition
   DEPER  =   0.30     relativ break condition

   TIME   =   0.40     timestep for ELM

  volume/ion in A,a.u.               =      15.29       103.21
  Fermi-wavevector in a.u.,A,eV,Ry     =   1.046930  1.978411 14.912834  1.096062
  Thomas-Fermi vector in A             =   2.181789

 Write flags
   LWAVE        =      T    write WAVECAR
   LDOWNSAMPLE  =      F    k-point downsampling of WAVECAR
   LCHARG       =      T    write CHGCAR
   LVTOT        =      F    write LOCPOT, total local potential
   LVHAR        =      F    write LOCPOT, Hartree potential only
   LELF         =      F    write electronic localiz. function (ELF)
   LORBIT       =      0    0 simple, 1 ext, 2 COOP (PROOUT), +10 PAW based schemes

 Dipole corrections
   LMONO  =      F    monopole corrections only (constant potential shift)
   LDIPOL =      F    correct potential (dipole corrections)
   IDIPOL =      0    1-x, 2-y, 3-z, 4-all directions
   EPSILON=  1.0000000 bulk dielectric constant

 Exchange correlation treatment:
   GGA     =    --    GGA type
   VOSKOWN=      0    Vosko Wilk Nusair interpolation
   LHFCALC =     F    Hartree Fock is set to
   LHFONE  =     F    Hartree Fock one center treatment
   AEXX    =    0.0000 exact exchange contribution

 Linear response parameters
[...]
   ORBITALMAG=     F  switch on orbital magnetization
   LCHIMAG   =     F  perturbation theory with respect to B field
   DQ        =  0.001000  dq finite difference perturbation B field
   LLRAUG    =     F  two centre corrections for induced B field

 conjugate gradient relaxation of ions
 charge density and potential will be updated during run
 non-spin polarized calculation
 Variant of blocked Davidson
 Davidson routine will perform the subspace rotation
 perform sub-space diagonalisation
    after iterative eigenvector-optimisation
 modified Broyden-mixing scheme, WC =      100.0
 initial mixing is a Kerker type mixing with AMIX =  0.4000 and BMIX =      1.0000
 Hartree-type preconditioning will be used
 using additional bands            4
 reciprocal scheme for non local part
 use partial core corrections
 calculate Harris-corrections to forces
   (improved forces if not selfconsistent)
 use gradient corrections
 use of overlap-Matrix (Vanderbilt PP)
 Gauss-broadening in eV      SIGMA  =   0.20

  energy-cutoff  :      250.00
  volume of cell :       30.59
      direct lattice vectors                 reciprocal lattice vectors
    -2.450000000  2.450000000  1.274000000     0.000000000  0.204081633  0.392464678
     2.450000000 -2.450000000  1.274000000     0.204081633  0.000000000  0.392464678
     2.450000000  2.450000000 -1.274000000     0.204081633  0.204081633 -0.000000000

  length of vectors
     3.691622408  3.691622408  3.691622408     0.442354876  0.442354876  0.288615013

 k-points in units of 2pi/SCALE and weight: Automatic kpoint scheme
   0.00000000  0.00000000  0.00000000       0.008
   0.00000000  0.04081633  0.07849294       0.064
   0.00000000  0.08163265  0.15698587       0.064
   0.04081633  0.04081633  0.15698587       0.064
   0.04081633  0.08163265  0.23547881       0.128
   0.04081633 -0.08163265 -0.07849294       0.128
   0.04081633 -0.04081633  0.00000000       0.032
   0.08163265  0.08163265  0.31397174       0.064
   0.08163265 -0.08163265  0.00000000       0.032
   0.08163265  0.08163265  0.15698587       0.064
   0.08163265  0.00000000  0.00000000       0.032
   0.12244898 -0.04081633  0.00000000       0.064
   0.12244898  0.00000000  0.07849294       0.064
  -0.04081633 -0.04081633 -0.31397174       0.064
  -0.04081633  0.00000000 -0.23547881       0.064
   0.00000000  0.00000000 -0.15698587       0.016
   0.16326531  0.00000000  0.00000000       0.032
   0.00000000  0.00000000 -0.31397174       0.016

 k-points in reciprocal lattice and weights: Automatic kpoint scheme
   0.00000000  0.00000000  0.00000000       0.008
   0.20000000  0.00000000 -0.00000000       0.064
   0.40000000  0.00000000 -0.00000000       0.064
   0.20000000  0.20000000 -0.00000000       0.064
   0.40000000  0.20000000 -0.00000000       0.128
  -0.40000000  0.20000000  0.00000000       0.128
  -0.20000000  0.20000000  0.00000000       0.032
   0.40000000  0.40000000 -0.00000000       0.064
  -0.40000000  0.40000000  0.00000000       0.032
   0.20000000  0.20000000  0.20000000       0.064
  -0.20000000  0.20000000  0.20000000       0.032
  -0.40000000  0.40000000  0.20000000       0.064
  -0.20000000  0.40000000  0.20000000       0.064
  -0.40000000 -0.40000000  0.20000000       0.064
  -0.20000000 -0.40000000  0.20000000       0.064
  -0.20000000 -0.20000000  0.20000000       0.016
  -0.40000000  0.40000000  0.40000000       0.032
  -0.40000000 -0.40000000  0.40000000       0.016

 position of ions in fractional coordinates (direct lattice)
   0.25000000  0.75000000  0.50000000
   0.00000000  0.00000000  0.00000000

 position of ions in cartesian coordinates  (Angst):
   2.45000000  0.00000000  0.63700000
   0.00000000  0.00000000  0.00000000

 k-point  1 :   0.0000 0.0000 0.0000  plane waves:     263
 k-point  2 :   0.2000 0.0000-0.0000  plane waves:     275
 k-point  3 :   0.4000 0.0000-0.0000  plane waves:     281
 k-point  4 :   0.2000 0.2000-0.0000  plane waves:     273
 k-point  5 :   0.4000 0.2000-0.0000  plane waves:     274
 k-point  6 :  -0.4000 0.2000 0.0000  plane waves:     276
 k-point  7 :  -0.2000 0.2000 0.0000  plane waves:     283
 k-point  8 :   0.4000 0.4000-0.0000  plane waves:     274
 k-point  9 :  -0.4000 0.4000 0.0000  plane waves:     275
 k-point 10 :   0.2000 0.2000 0.2000  plane waves:     271
 k-point 11 :  -0.2000 0.2000 0.2000  plane waves:     270
 k-point 12 :  -0.4000 0.4000 0.2000  plane waves:     275
 k-point 13 :  -0.2000 0.4000 0.2000  plane waves:     274
 k-point 14 :  -0.4000-0.4000 0.2000  plane waves:     276
 k-point 15 :  -0.2000-0.4000 0.2000  plane waves:     274
 k-point 16 :  -0.2000-0.2000 0.2000  plane waves:     271
 k-point 17 :  -0.4000 0.4000 0.4000  plane waves:     280
 k-point 18 :  -0.4000-0.4000 0.4000  plane waves:     280

 maximum and minimum number of plane-waves per node :       283      263

 maximum number of plane-waves:       283
 maximum index in each direction:
   IXMAX=    5   IYMAX=    5   IZMAX=    4
   IXMIN=   -5   IYMIN=   -5   IZMIN=   -5

 serial   3D FFT for wavefunctions
 parallel 3D FFT for charge:
    minimum data exchange during FFTs selected (reduces bandwidth)

 Broyden mixing: mesh for mixing (old mesh)
   NGX =  9   NGY =  9   NGZ =  9
  (NGX  = 28   NGY  = 28   NGZ  = 28)
  gives a total of    729 points

 initial charge density was supplied:
 charge density of overlapping atoms calculated
 number of electron       8.0000000 magnetization
 keeping initial charge density in first step

 Maximum index for augmentation-charges          442 (set IRDMAX)

 First call to EWALD:  gamma=   0.567
 Maximum number of real-space cells 4x 4x 3
 Maximum number of reciprocal cells 3x 3x 3

--------------------------------------- Iteration      1(   1)  ---------------------------------------

 eigenvalue-minimisations  :   296
 total energy-change (2. order) :-0.3678103E+00  (-0.2426571E+03)
 number of electron       8.0000000 magnetization
 augmentation part        8.0000000 magnetization

 Free energy of the ion-electron system (eV)
  alpha Z        PSCENC =         4.40202223
  Ewald energy   TEWEN  =      -265.18101312
  -Hartree energ DENC   =        -2.30415367
  -exchange      EXHF   =         0.00000000
  -V(xc)+E(xc)   XCENC  =       -17.81545108
  PAW double counting   =        65.95520812      -30.76852678
  entropy T*S    EENTRO =        -0.01212378
  eigenvalues    EBANDS =        39.23272860
  atomic energy  EATOM  =       206.12349923
  Solvation  Ediel_sol  =         0.00000000
  free energy    TOTEN  =        -0.36781026 eV

  energy without entropy =       -0.35568648  energy(sigma->0) =       -0.36174837

[...]

 Broyden mixing:
  rms(total) = 0.14608E+00    rms(broyden)= 0.14606E+00
  rms(prec ) = 0.32753E+00
  weight for this iteration     100.00

[...]

 eigenvalue-minimisations  :   416
 total energy-change (2. order) : 0.5358171E-02  (-0.1866200E-03)
 number of electron       7.9999993 magnetization
 augmentation part       -0.4723641 magnetization

[...]

 eigenvalues of (default mixing * dielectric matrix)
  average eigenvalue GAMMA=   2.6665
  2.6665

[...]

 average (electrostatic) potential at core
  the test charge radii are     0.9892
  (the norm of the test charge is              1.0000)
       1 -80.5481       2 -80.5481

 E-fermi :   9.1554     XC(G=0): -10.8934     alpha+bet :-15.6819

 k-point     1 :       0.0000    0.0000    0.0000
  band No.  band energies     occupation
      1      -4.6166      2.00000
      2       6.1830      2.00000
      3       6.2983      2.00000
      4       6.2984      2.00000
      5      10.5421      0.00000
      6      16.8712      0.00000
      7      17.3687      0.00000
      8      17.3687      0.00000

[...]

 soft charge-density along one line, spin component           1
         0         1         2         3         4         5         6         7         8         9
 total charge-density along one line

------------------------ aborting loop because EDIFF is reached ----------------------------------------

  FORCE on cell =-STRESS in cart. coord.  units (eV):
  Direction    XX          YY          ZZ          XY          YZ          ZX
  Alpha Z     4.40202     4.40202     4.40202
  Ewald     -90.96023   -90.96023   -83.26083    -0.00000     0.00000     0.00000
  Hartree     0.54901     0.54901     1.38349     0.00000     0.00000     0.00000
  E(xc)     -25.43361   -25.43361   -25.38110     0.00005     0.00001     0.00001
  Local     -11.33916   -11.33916   -17.37824    -0.00002    -0.00005    -0.00005
  n-local    76.95291    77.35213    76.86305     1.03142    -0.48442    -0.36719
  augment   -12.14748   -12.14748   -11.98285     0.00004     0.00005     0.00005
  Kinetic    63.75138    52.81850    54.60043     5.02130    -4.07299    -5.34368
  Fock        0.00000     0.00000     0.00000     0.00000     0.00000     0.00000
  Total       0.50801     0.50801    -0.75404    -0.00000     0.00000     0.00000
  in kB      26.60832    26.60832   -39.49499    -0.00000     0.00000     0.00000

 VOLUME and BASIS-vectors are now :
  energy-cutoff  :      250.00
  volume of cell :       30.59
      direct lattice vectors                 reciprocal lattice vectors
    -2.450000000  2.450000000  1.274000000     0.000000000  0.204081633  0.392464678
     2.450000000 -2.450000000  1.274000000     0.204081633  0.000000000  0.392464678
     2.450000000  2.450000000 -1.274000000     0.204081633  0.204081633 -0.000000000

[...]

 FORCES acting on ions
    electron-ion (+dipol)            ewald-force                    non-local-force                 convergence-correction
   0.941E-05 -.941E-05 0.139E-13   0.198E-14 0.156E-15 0.342E-17   -.972E-16 0.485E-16 -.206E-16   -.177E-06 0.177E-06 -.309E-15
   -.941E-05 0.941E-05 -.540E-14   -.185E-14 0.943E-16 0.891E-15   0.766E-16 -.414E-16 0.218E-16   0.177E-06 -.177E-06 0.329E-15
   -.155E-13 0.124E-13 0.854E-14   0.139E-15 0.250E-15 0.894E-15   -.206E-16 0.711E-17 0.123E-17   -.235E-15 0.457E-16 0.193E-16

 POSITION                                       TOTAL-FORCE (eV/Angst)
      2.45000      0.00000      0.63700        -0.000000      0.000000     -0.000000
      0.00000      0.00000      0.00000         0.000000     -0.000000      0.000000
    total drift:                               -0.000000      0.000000      0.000000

  FREE ENERGIE OF THE ION-ELECTRON SYSTEM (eV)
  free  energy   TOTEN  =       -10.23130303 eV

  energy  without entropy=      -10.21200186  energy(sigma->0) =      -10.22165245

[...]

 d Force = 0.0000000E+00[ 0.000E+00, 0.000E+00]  d Energy = 0.1914114E-01-0.191E-01
 d Force = 0.0000000E+00[ 0.000E+00, 0.000E+00]  d Ewald  =-0.7414652E+00 0.741E+00

 Steepest descent step on ions:
 trial-energy change:   -0.019141  1 .order   -0.016869   -0.026165   -0.007574
  (g-gl).g = 0.262E-01      g.g   = 0.262E-01  gl.gl    = 0.000E+00
 g(Force)  = 0.650E-44   g(Stress)= 0.262E-01 ortho     = 0.000E+00
 gamma     =   0.00000
 trial     =   1.00000
 opt step  =   1.21541  (harmonic =   1.40738) maximal distance =0.00000000
 next E    =   -10.251283   (d E  =  -0.01998)

[...]

 d Force = 0.0000000E+00[ 0.000E+00, 0.000E+00]  d Energy = 0.1269626E-02-0.127E-02
 d Force = 0.0000000E+00[ 0.000E+00, 0.000E+00]  d Ewald  =-0.1670833E+00 0.167E+00

[...]

 d Force = 0.0000000E+00[ 0.000E+00, 0.000E+00]  d Energy =-0.3109448E-02 0.311E-02
 d Force = 0.0000000E+00[ 0.000E+00, 0.000E+00]  d Ewald  =-0.3425784E+00 0.343E+00

[...]

 eigenvalues of (default mixing * dielectric matrix)
  average eigenvalue GAMMA=   1.4128
  2.2029  0.6228

[...]

 d Force = 0.0000000E+00[ 0.000E+00, 0.000E+00]  d Energy = 0.2911905E-02-0.291E-02
 d Force = 0.0000000E+00[ 0.000E+00, 0.000E+00]  d Ewald  = 0.2638302E+00-0.264E+00

[...]

 eigenvalue-minimisations  :   400
 total energy-change (2. order) :-0.2824941E-04  (-0.1219670E-03)
 number of electron       8.0000016 magnetization
 augmentation part       -0.4749178 magnetization

 Broyden mixing:
  rms(total) = 0.23994E-02    rms(broyden)= 0.23984E-02
  rms(prec ) = 0.71479E-02
  weight for this iteration     100.00

[...]

--------------------------------------- Iteration      7(   2)  ---------------------------------------

 eigenvalue-minimisations  :   144
 total energy-change (2. order) : 0.1667317E-04  (-0.2872706E-05)
 number of electron       8.0000016 magnetization
 augmentation part       -0.4749178 magnetization

 Free energy of the ion-electron system (eV)
  alpha Z        PSCENC =         4.36969286
  Ewald energy   TEWEN  =      -264.25005115
  -Hartree energ DENC   =        -2.67831865
  -exchange      EXHF   =         0.00000000
  -V(xc)+E(xc)   XCENC  =       -17.60590756
  PAW double counting   =        70.72033108      -35.63672656
  entropy T*S    EENTRO =        -0.02425005
  eigenvalues    EBANDS =        28.73015742
  atomic energy  EATOM  =       206.12349923
  Solvation  Ediel_sol  =         0.00000000
  free energy    TOTEN  =       -10.25157338 eV

  energy without entropy =      -10.22732333  energy(sigma->0) =      -10.23944835

 average (electrostatic) potential at core
  the test charge radii are     0.9892
  (the norm of the test charge is              1.0000)
       1 -80.6487       2 -80.6487

 E-fermi :   9.0301     XC(G=0): -10.8578     alpha+bet :-15.5667

[...]

 k-point    18 :      -0.4000   -0.4000    0.4000
  band No.  band energies     occupation
      1       1.0558      2.00000
      2       1.0656      2.00000
      3       3.0690      2.00000
      4       3.0690      2.00000
      5       9.7076      0.00000
      6      18.2465      0.00000
      7      19.6403      0.00000
      8      19.6404      0.00000

 soft charge-density along one line, spin component           1
         0         1         2         3         4         5         6         7         8         9
 total charge-density along one line

------------------------ aborting loop because EDIFF is reached ----------------------------------------

  FORCE on cell =-STRESS in cart. coord.  units (eV):
  Direction    XX          YY          ZZ          XY          YZ          ZX
  Alpha Z     4.36969     4.36969     4.36969
  Ewald     -92.91797   -92.91797   -78.41416    -0.00000    -0.00000    -0.00000
  Hartree     0.44003     0.44003     1.79309     0.00000     0.00000     0.00000
  E(xc)     -25.38087   -25.38087   -25.40824     0.00005     0.00001     0.00001
  Local      -9.05197    -9.05197   -22.86107    -0.00001    -0.00005    -0.00005
  n-local    76.47212    76.65513    77.96032     0.97053    -0.36546    -0.47092
  augment   -12.09900   -12.09900   -12.06408     0.00004     0.00005     0.00005
  Kinetic    62.88235    53.26821    54.62641     4.59276    -2.93089    -5.05605
  Fock        0.00000     0.00000     0.00000     0.00000     0.00000     0.00000
  Total      -0.00119    -0.00119     0.00196     0.00000     0.00000     0.00000
  in kB      -0.06171    -0.06171     0.10210     0.00000     0.00000     0.00000

 VOLUME and BASIS-vectors are now :
  energy-cutoff  :      250.00
  volume of cell :       30.82
      direct lattice vectors                 reciprocal lattice vectors
    -2.487348259  2.487348259  1.245173084    -0.000000000  0.201017287  0.401550601
     2.487348259 -2.487348259  1.245173084     0.201017287 -0.000000000  0.401550601
     2.487348259  2.487348259 -1.245173084     0.201017287  0.201017287  0.000000000

  length of vectors
     3.731522307  3.731522307  3.731522307     0.449055492  0.449055492  0.284281374

 FORCES acting on ions
    electron-ion (+dipol)            ewald-force                    non-local-force                 convergence-correction
   0.988E-05 -.988E-05 -.214E-14   0.260E-14 -.553E-14 0.192E-14   0.387E-16 -.584E-16 -.794E-17   0.199E-07 -.199E-07 -.242E-15
   -.988E-05 0.988E-05 0.981E-14   -.261E-14 0.519E-14 -.260E-14   -.586E-17 0.601E-16 0.158E-16   -.199E-07 0.199E-07 0.104E-15
   -.133E-13 0.138E-13 0.767E-14   -.711E-17 -.341E-15 -.685E-15   0.329E-16 0.166E-17 0.787E-17   -.163E-15 -.362E-15 -.138E-15

 POSITION                                       TOTAL-FORCE (eV/Angst)
      2.48735      0.00000      0.62259         0.000000     -0.000000      0.000000
      0.00000     -0.00000      0.00000        -0.000000      0.000000     -0.000000
    total drift:                               -0.000000      0.000000      0.000000

  FREE ENERGIE OF THE ION-ELECTRON SYSTEM (eV)
  free  energy   TOTEN  =       -10.25157338 eV

  energy  without entropy=      -10.22732333  energy(sigma->0) =      -10.23944835

 d Force = 0.0000000E+00[ 0.000E+00, 0.000E+00]  d Energy = 0.1392302E-04-0.139E-04
 d Force = 0.0000000E+00[ 0.000E+00, 0.000E+00]  d Ewald  = 0.3464158E-01-0.346E-01

 reached required accuracy - stopping structural energy minimisation
 writing wavefunctions