 vasp.5.4.4.18Apr17-6-g9f103f2a35 (build Dec 09 2018 21:25:21) complex

 executed on IFC18.0.1.163_CrayMP date 2019.03.20  09:26:20

 INCAR:
 POTCAR:   PAW_PBE Si 05Jan2001

 POTCAR:   PAW_PBE Si 05Jan2001
   VRHFIN =Si: s2p2

   TITEL  = PAW_PBE Si 05Jan2001
   POMASS =   28.085; ZVAL   =    4.000    mass and valenz
   ENMAX  =  245.345; ENMIN  =  184.009 eV
   QCUT   =   -4.246; QGAM   =    8.493    optimization parameters

   Description
     l     E      TYP  RCUT    TYP  RCUT
     0   .000     23  1.900
     0   .000     23  1.900
     1   .000     23  1.900
     1   .000     23  1.900
     2   .000      7  1.900

 PAW_PBE Si 05Jan2001                   :

 POSCAR: Si2
  positions in direct lattice
 exchange correlation table for  LEXCH =        8
   RHO(1)=    0.500       N(1)  =     2000
   RHO(2)=  100.500       N(2)  =     4000

 ion  position               nearest neighbor table
   1  0.250  0.750  0.500-   2 2.53   2 2.53   2 2.53   2 2.53   2 3.11   2 3.11   2 3.11   2 3.11

   2  0.000  0.000  0.000-   1 2.53   1 2.53   1 2.53   1 2.53   1 3.11   1 3.11   1 3.11   1 3.11

  LATTYP: Found a body centered tetragonal cell.
 ALAT       =     4.9000000000
 C/A-ratio  =     0.5200000000

  Lattice vectors:

 A1 = (  -2.4500000000,   2.4500000000,   1.2740000000)
 A2 = (   2.4500000000,  -2.4500000000,   1.2740000000)
 A3 = (   2.4500000000,   2.4500000000,  -1.2740000000)

Analysis of symmetry for initial positions (statically):
 Subroutine PRICEL returns:
 Original cell was already a primitive cell.

 Routine SETGRP: Setting up the symmetry group for a
 body centered tetragonal supercell.

 Subroutine GETGRP returns: Found 16 space group operations
 (whereof  8 operations were pure point group operations)
 out of a pool of 16 trial point group operations.

The static configuration has the point symmetry D_2d.
 The point group associated with its full space group is D_4h.

Analysis of symmetry for dynamics (positions and initial velocities):
 Subroutine PRICEL returns:
 Original cell was already a primitive cell.

 Routine SETGRP: Setting up the symmetry group for a
 body centered tetragonal supercell.

 Subroutine GETGRP returns: Found 16 space group operations
 (whereof  8 operations were pure point group operations)
 out of a pool of 16 trial point group operations.

The dynamic configuration has the point symmetry D_2d.
 The point group associated with its full space group is D_4h.

 Subroutine INISYM returns: Found 16 space group operations
 (whereof  8 operations are pure point group operations),
 and found     1 'primitive' translations

 KPOINTS: Automatic kpoint scheme

Automatic generation of k-mesh.
Space group operators:
 irot       det(A)        alpha          n_x          n_y          n_z        tau_x        tau_y        tau_z
    1     1.000000     0.000000     1.000000     0.000000     0.000000     0.000000     0.000000     0.000000
    2    -1.000000    90.000000    -0.000000    -0.000000    -1.000000     0.000000     0.000000     0.000000
    3     1.000000   180.000000    -0.000000    -0.000000    -1.000000     0.000000     0.000000     0.000000
    4    -1.000000    90.000000    -0.000000     0.000000     1.000000     0.000000     0.000000     0.000000
    5    -1.000000   180.000000     0.000000    -1.000000     0.000000     0.000000     0.000000     0.000000
    6     1.000000   180.000000     0.707107     0.707107    -0.000000     0.000000     0.000000     0.000000
    7    -1.000000   180.000000     1.000000     0.000000     0.000000     0.000000     0.000000     0.000000
    8     1.000000   180.000000     0.707107    -0.707107     0.000000     0.000000     0.000000     0.000000
    9    -1.000000     0.000000     1.000000     0.000000     0.000000     0.250000     0.750000     0.500000
   10     1.000000    90.000000    -0.000000    -0.000000    -1.000000     0.250000     0.750000     0.500000
   11    -1.000000   180.000000    -0.000000    -0.000000    -1.000000     0.250000     0.750000     0.500000
   12     1.000000    90.000000    -0.000000     0.000000     1.000000     0.250000     0.750000     0.500000
   13     1.000000   180.000000     0.000000    -1.000000     0.000000     0.250000     0.750000     0.500000
   14    -1.000000   180.000000     0.707107     0.707107    -0.000000     0.250000     0.750000     0.500000
   15     1.000000   180.000000     1.000000     0.000000     0.000000     0.250000     0.750000     0.500000
   16    -1.000000   180.000000     0.707107    -0.707107     0.000000     0.250000     0.750000     0.500000

 Subroutine IBZKPT returns following result:

 Found    159 irreducible k-points:

 Following reciprocal coordinates:
            Coordinates               Weight
  0.041667  0.041667  0.041667    128.000000
  0.125000  0.041667  0.041667    256.000000
  0.208333  0.041667  0.041667    256.000000
  0.291667  0.041667  0.041667    256.000000
  0.375000  0.041667  0.041667    256.000000
  0.458333  0.041667  0.041667    128.000000
 -0.041667  0.041667  0.041667     64.000000
  0.125000  0.125000  0.041667    128.000000
  0.208333  0.125000  0.041667    256.000000
  0.291667  0.125000  0.041667    256.000000
  0.375000  0.125000  0.041667    256.000000
  0.458333  0.125000  0.041667    256.000000
 -0.458333  0.125000  0.041667    256.000000
 -0.375000  0.125000  0.041667    256.000000
 -0.291667  0.125000  0.041667    256.000000
 -0.208333  0.125000  0.041667    128.000000
 -0.125000  0.125000  0.041667    128.000000
 -0.041667  0.125000  0.041667    128.000000
  0.208333  0.208333  0.041667    128.000000
  0.291667  0.208333  0.041667    256.000000
  0.375000  0.208333  0.041667    256.000000
  0.458333  0.208333  0.041667    256.000000
 -0.458333  0.208333  0.041667    256.000000
 -0.375000  0.208333  0.041667    256.000000
 -0.291667  0.208333  0.041667    128.000000
 -0.208333  0.208333  0.041667    128.000000
 -0.125000  0.208333  0.041667    256.000000
 -0.041667  0.208333  0.041667    128.000000
  0.291667  0.291667  0.041667    128.000000
  0.375000  0.291667  0.041667    256.000000
  0.458333  0.291667  0.041667    256.000000
 -0.458333  0.291667  0.041667    256.000000
 -0.375000  0.291667  0.041667    128.000000
 -0.291667  0.291667  0.041667    128.000000
 -0.208333  0.291667  0.041667    256.000000
 -0.125000  0.291667  0.041667    256.000000
 -0.041667  0.291667  0.041667    128.000000
  0.375000  0.375000  0.041667    128.000000
  0.458333  0.375000  0.041667    256.000000
 -0.458333  0.375000  0.041667    128.000000
 -0.375000  0.375000  0.041667    128.000000
 -0.291667  0.375000  0.041667    256.000000
 -0.208333  0.375000  0.041667    256.000000
 -0.125000  0.375000  0.041667    256.000000
 -0.041667  0.375000  0.041667    128.000000
  0.458333  0.458333  0.041667     64.000000
 -0.458333  0.458333  0.041667    128.000000
 -0.375000  0.458333  0.041667    256.000000
 -0.291667  0.458333  0.041667    256.000000
 -0.208333  0.458333  0.041667    256.000000
 -0.125000  0.458333  0.041667    256.000000
 -0.041667  0.458333  0.041667    128.000000
 -0.458333 -0.458333  0.041667    128.000000
 -0.375000 -0.458333  0.041667    256.000000
 -0.291667 -0.458333  0.041667    256.000000
 -0.208333 -0.458333  0.041667    256.000000
 -0.125000 -0.458333  0.041667    256.000000
 -0.041667 -0.458333  0.041667    128.000000
 -0.375000 -0.375000  0.041667    128.000000
 -0.291667 -0.375000  0.041667    256.000000
[...]
 -0.291667  0.458333  0.291667    128.000000
 -0.458333 -0.458333  0.291667    128.000000
 -0.375000 -0.458333  0.291667    256.000000
 -0.291667 -0.458333  0.291667    128.000000
 -0.375000 -0.375000  0.291667    128.000000
 -0.291667 -0.375000  0.291667    128.000000
 -0.291667 -0.291667  0.291667     32.000000
 -0.375000  0.375000  0.375000     64.000000
 -0.458333  0.458333  0.375000    128.000000
 -0.375000  0.458333  0.375000    128.000000
 -0.458333 -0.458333  0.375000    128.000000
 -0.375000 -0.458333  0.375000    128.000000
 -0.375000 -0.375000  0.375000     32.000000
 -0.458333  0.458333  0.458333     64.000000
 -0.458333 -0.458333  0.458333     32.000000

 Following cartesian coordinates:
            Coordinates               Weight
  0.017007  0.017007  0.032705    128.000000
  0.017007  0.034014  0.065411    256.000000
  0.017007  0.051020  0.098116    256.000000
  0.017007  0.068027  0.130822    256.000000
  0.017007  0.085034  0.163527    256.000000
  0.017007  0.102041  0.196232    128.000000
  0.017007 -0.000000  0.000000     64.000000
  0.034014  0.034014  0.098116    128.000000
  0.034014  0.051020  0.130822    256.000000
  0.034014  0.068027  0.163527    256.000000
  0.034014  0.085034  0.196232    256.000000
  0.034014  0.102041  0.228938    256.000000
  0.034014 -0.085034 -0.130822    256.000000
  0.034014 -0.068027 -0.098116    256.000000
  0.034014 -0.051020 -0.065411    256.000000
  0.034014 -0.034014 -0.032705    128.000000
  0.034014 -0.017007  0.000000    128.000000
  0.034014  0.000000  0.032705    128.000000
  0.051020  0.051020  0.163527    128.000000
  0.051020  0.068027  0.196232    256.000000
  0.051020  0.085034  0.228938    256.000000
  0.051020  0.102041  0.261643    256.000000
  0.051020 -0.085034 -0.098116    256.000000
  0.051020 -0.068027 -0.065411    256.000000
  0.051020 -0.051020 -0.032705    128.000000
  0.051020 -0.034014 -0.000000    128.000000
  0.051020 -0.017007  0.032705    256.000000
  0.051020  0.000000  0.065411    128.000000
  0.068027  0.068027  0.228938    128.000000
  0.068027  0.085034  0.261643    256.000000
  0.068027  0.102041  0.294349    256.000000
  0.068027 -0.085034 -0.065411    256.000000
  0.068027 -0.068027 -0.032705    128.000000
  0.068027 -0.051020 -0.000000    128.000000
  0.068027 -0.034014  0.032705    256.000000
  0.068027 -0.017007  0.065411    256.000000
  0.068027  0.000000  0.098116    128.000000
  0.085034  0.085034  0.294349    128.000000
  0.085034  0.102041  0.327054    256.000000
  0.085034 -0.085034 -0.032705    128.000000
  0.085034 -0.068027  0.000000    128.000000
  0.085034 -0.051020  0.032705    256.000000
  0.085034 -0.034014  0.065411    256.000000
  0.085034 -0.017007  0.098116    256.000000
  0.085034  0.000000  0.130822    128.000000
  0.102041  0.102041  0.359759     64.000000
  0.102041 -0.085034 -0.000000    128.000000
  0.102041 -0.068027  0.032705    256.000000
  0.102041 -0.051020  0.065411    256.000000
  0.102041 -0.034014  0.098116    256.000000
  0.102041 -0.017007  0.130822    256.000000
  0.102041  0.000000  0.163527    128.000000
 -0.085034 -0.085034 -0.359759    128.000000
 -0.085034 -0.068027 -0.327054    256.000000
 -0.085034 -0.051020 -0.294349    256.000000
 -0.085034 -0.034014 -0.261643    256.000000
 -0.085034 -0.017007 -0.228938    256.000000
 -0.085034 -0.000000 -0.196232    128.000000
 -0.068027 -0.068027 -0.294349    128.000000
 -0.068027 -0.051020 -0.261643    256.000000
[...]
  0.153061  0.000000  0.065411    128.000000
 -0.034014 -0.034014 -0.359759    128.000000
 -0.034014 -0.017007 -0.327054    256.000000
 -0.034014  0.000000 -0.294349    128.000000
 -0.017007 -0.017007 -0.294349    128.000000
 -0.017007  0.000000 -0.261643    128.000000
[...]
 k-point 58 :  -0.0417-0.4583 0.0417  plane waves:     356
 k-point 59 :  -0.3750-0.3750 0.0417  plane waves:     367
 k-point 60 :  -0.2917-0.3750 0.0417  plane waves:     359
[...]
 k-point 85 :  -0.1250 0.2083 0.1250  plane waves:     361
 k-point 86 :   0.2917 0.2917 0.1250  plane waves:     356
 k-point 87 :   0.3750 0.2917 0.1250  plane waves:     360
 k-point 88 :   0.4583 0.2917 0.1250  plane waves:     360
 k-point 89 :  -0.2917 0.2917 0.1250  plane waves:     364
 k-point 90 :  -0.2083 0.2917 0.1250  plane waves:     365
 k-point 91 :  -0.1250 0.2917 0.1250  plane waves:     364
 k-point 92 :   0.3750 0.3750 0.1250  plane waves:     360
 k-point 93 :  -0.3750 0.3750 0.1250  plane waves:     365
 k-point 94 :  -0.2917 0.3750 0.1250  plane waves:     365
 k-point 95 :  -0.2083 0.3750 0.1250  plane waves:     363
 k-point 96 :  -0.1250 0.3750 0.1250  plane waves:     356
 k-point 97 :  -0.4583 0.4583 0.1250  plane waves:     367
 k-point 98 :  -0.3750 0.4583 0.1250  plane waves:     360
 k-point 99 :  -0.2917 0.4583 0.1250  plane waves:     364
 k-point ** :  -0.2083 0.4583 0.1250  plane waves:     360
 k-point ** :  -0.1250 0.4583 0.1250  plane waves:     360
 k-point ** :  -0.4583-0.4583 0.1250  plane waves:     364
 k-point ** :  -0.3750-0.4583 0.1250  plane waves:     364
 k-point ** :  -0.2917-0.4583 0.1250  plane waves:     364
 k-point ** :  -0.2083-0.4583 0.1250  plane waves:     358
 k-point ** :  -0.1250-0.4583 0.1250  plane waves:     361
 k-point ** :  -0.3750-0.3750 0.1250  plane waves:     361
 k-point ** :  -0.2917-0.3750 0.1250  plane waves:     360
 k-point ** :  -0.2083-0.3750 0.1250  plane waves:     356
 k-point ** :  -0.1250-0.3750 0.1250  plane waves:     358
 k-point ** :  -0.2917-0.2917 0.1250  plane waves:     352
 k-point ** :  -0.2083-0.2917 0.1250  plane waves:     356
 k-point ** :  -0.1250-0.2917 0.1250  plane waves:     352
 k-point ** :  -0.2083-0.2083 0.1250  plane waves:     348
 k-point ** :  -0.1250-0.2083 0.1250  plane waves:     359
 k-point ** :  -0.1250-0.1250 0.1250  plane waves:     363
 k-point ** :   0.2083 0.2083 0.2083  plane waves:     357
 k-point ** :   0.2917 0.2083 0.2083  plane waves:     354
 k-point ** :  -0.2083 0.2083 0.2083  plane waves:     361
 k-point ** :   0.2917 0.2917 0.2083  plane waves:     354
 k-point ** :  -0.2917 0.2917 0.2083  plane waves:     362
 k-point ** :  -0.2083 0.2917 0.2083  plane waves:     367
 k-point ** :  -0.3750 0.3750 0.2083  plane waves:     362
 k-point ** :  -0.2917 0.3750 0.2083  plane waves:     361
 k-point ** :  -0.2083 0.3750 0.2083  plane waves:     362
 k-point ** :  -0.4583 0.4583 0.2083  plane waves:     361
 k-point ** :  -0.3750 0.4583 0.2083  plane waves:     361
 k-point ** :  -0.2917 0.4583 0.2083  plane waves:     362
 k-point ** :  -0.2083 0.4583 0.2083  plane waves:     361
 k-point ** :  -0.4583-0.4583 0.2083  plane waves:     361
 k-point ** :  -0.3750-0.4583 0.2083  plane waves:     363
 k-point ** :  -0.2917-0.4583 0.2083  plane waves:     361
 k-point ** :  -0.2083-0.4583 0.2083  plane waves:     359
 k-point ** :  -0.3750-0.3750 0.2083  plane waves:     362
 k-point ** :  -0.2917-0.3750 0.2083  plane waves:     359
 k-point ** :  -0.2083-0.3750 0.2083  plane waves:     356
 k-point ** :  -0.2917-0.2917 0.2083  plane waves:     360
 k-point ** :  -0.2083-0.2917 0.2083  plane waves:     351
 k-point ** :  -0.2083-0.2083 0.2083  plane waves:     348
 k-point ** :  -0.2917 0.2917 0.2917  plane waves:     359
 k-point ** :  -0.3750 0.3750 0.2917  plane waves:     360
 k-point ** :  -0.2917 0.3750 0.2917  plane waves:     362
 k-point ** :  -0.4583 0.4583 0.2917  plane waves:     362
 k-point ** :  -0.3750 0.4583 0.2917  plane waves:     364
 k-point ** :  -0.2917 0.4583 0.2917  plane waves:     363
 k-point ** :  -0.4583-0.4583 0.2917  plane waves:     363
 k-point ** :  -0.3750-0.4583 0.2917  plane waves:     364
 k-point ** :  -0.2917-0.4583 0.2917  plane waves:     363
 k-point ** :  -0.3750-0.3750 0.2917  plane waves:     364
 k-point ** :  -0.2917-0.3750 0.2917  plane waves:     362
 k-point ** :  -0.2917-0.2917 0.2917  plane waves:     364
 k-point ** :  -0.3750 0.3750 0.3750  plane waves:     361
 k-point ** :  -0.4583 0.4583 0.3750  plane waves:     362
 k-point ** :  -0.3750 0.4583 0.3750  plane waves:     364
 k-point ** :  -0.4583-0.4583 0.3750  plane waves:     364
 k-point ** :  -0.3750-0.4583 0.3750  plane waves:     366
 k-point ** :  -0.3750-0.3750 0.3750  plane waves:     360
 k-point ** :  -0.4583 0.4583 0.4583  plane waves:     361
 k-point ** :  -0.4583-0.4583 0.4583  plane waves:     364

 maximum and minimum number of plane-waves per node :       373      347

 maximum number of plane-waves:       373
 maximum index in each direction:
   IXMAX=    5   IYMAX=    5   IZMAX=    5
   IXMIN=   -5   IYMIN=   -5   IZMIN=   -5

 serial   3D FFT for wavefunctions
 parallel 3D FFT for charge:
    minimum data exchange during FFTs selected (reduces bandwidth)

 Broyden mixing: mesh for mixing (old mesh)
   NGX = 11   NGY = 11   NGZ = 11
  (NGX  = 32   NGY  = 32   NGZ  = 32)
  gives a total of   1331 points

 initial charge density was supplied:
 charge density of overlapping atoms calculated
 number of electron       8.0000000 magnetization
 keeping initial charge density in first step

 Maximum index for augmentation-charges          547 (set IRDMAX)

 First call to EWALD:  gamma=   0.567
 Maximum number of real-space cells 4x 4x 3
 Maximum number of reciprocal cells 3x 3x 3

--------------------------------------- Iteration      1(   1)  ---------------------------------------

 eigenvalue-minimisations  :  2600
 total energy-change (2. order) : 0.9377465E-01  (-0.2592602E+03)
 number of electron       8.0000000 magnetization
 augmentation part        8.0000000 magnetization

 Free energy of the ion-electron system (eV)
  alpha Z        PSCENC =         4.40202223
  Ewald energy   TEWEN  =      -265.18101312
  -Hartree energ DENC   =        -2.30415367
  -exchange      EXHF   =         0.00000000
  -V(xc)+E(xc)   XCENC  =       -17.81548033
  PAW double counting   =        65.95520812      -30.76852678
  entropy T*S    EENTRO =        -0.01689921
  eigenvalues    EBANDS =        39.69293154
  atomic energy  EATOM  =       206.12968587
  Solvation  Ediel_sol  =         0.00000000
  free energy    TOTEN  =         0.09377465 eV

  energy without entropy =        0.11067387  energy(sigma->0) =        0.10222426

[...]

 eigenvalue-minimisations  :  3872
 total energy-change (2. order) :-0.1023193E+02  (-0.9899042E+01)
 number of electron       8.0000000 magnetization
 augmentation part        8.0000000 magnetization

[...]

 Broyden mixing:
  rms(total) = 0.14932E+00    rms(broyden)= 0.14932E+00
  rms(prec ) = 0.33415E+00
  weight for this iteration     100.00

[...]

 eigenvalues of (default mixing * dielectric matrix)
  average eigenvalue GAMMA=   2.6688
  2.6688

[...]

 average (electrostatic) potential at core
  the test charge radii are     0.9892
  (the norm of the test charge is              1.0000)
       1 -80.5495       2 -80.5495

 E-fermi :   9.0750     XC(G=0): -10.8922     alpha+bet :-15.6819

 k-point     1 :       0.0417    0.0417    0.0417
  band No.  band energies     occupation
      1      -4.3787      2.00000
      2       4.9599      2.00000
      3       6.5073      2.00000
      4       7.4986      2.00000
      5      11.1938      0.00000
      6      15.3439      0.00000
      7      16.4698      0.00000
      8      17.2983      0.00000

[...]

 soft charge-density along one line, spin component           1
         0         1         2         3         4         5         6         7         8         9
 total charge-density along one line

------------------------ aborting loop because EDIFF is reached ----------------------------------------

  FORCE on cell =-STRESS in cart. coord.  units (eV):
  Direction    XX          YY          ZZ          XY          YZ          ZX
  Alpha Z     4.40202     4.40202     4.40202
  Ewald     -90.96023   -90.96023   -83.26083    -0.00000     0.00000     0.00000
  Hartree     0.54974     0.54974     1.39521    -0.00000    -0.00000    -0.00000
  E(xc)     -25.41910   -25.41910   -25.37564     0.00001     0.00000     0.00000
  Local     -11.14387   -11.14387   -17.53307    -0.00005    -0.00003    -0.00003
  n-local    76.90305    76.94272    76.53506     1.06558    -0.40619    -0.45739
  augment   -12.08600   -12.08600   -12.01241     0.00003     0.00003     0.00003
  Kinetic    57.11300    57.38001    56.90000     3.39787    -1.95316    -3.47352
  Fock        0.00000     0.00000     0.00000     0.00000     0.00000     0.00000
  Total      -0.48804    -0.48804     1.05034    -0.00000     0.00000     0.00000
  in kB     -25.56263   -25.56263    55.01479    -0.00000     0.00000     0.00000

 VOLUME and BASIS-vectors are now :
  energy-cutoff  :      300.00
  volume of cell :       30.59
      direct lattice vectors                 reciprocal lattice vectors
    -2.450000000  2.450000000  1.274000000     0.000000000  0.204081633  0.392464678
     2.450000000 -2.450000000  1.274000000     0.204081633  0.000000000  0.392464678
     2.450000000  2.450000000 -1.274000000     0.204081633  0.204081633 -0.000000000

[...]

 FORCES acting on ions
    electron-ion (+dipol)            ewald-force                    non-local-force                 convergence-correction
   0.425E-06 -.425E-06 -.151E-13   0.198E-14 0.156E-15 0.342E-17   0.862E-17 0.433E-16 -.457E-16   -.573E-08 0.573E-08 0.362E-16
   -.425E-06 0.425E-06 -.165E-14   -.185E-14 0.943E-16 0.891E-15   0.233E-16 -.808E-16 0.370E-16   0.573E-08 -.573E-08 0.409E-16
   0.870E-14 0.653E-14 -.167E-13   0.139E-15 0.250E-15 0.894E-15   0.319E-16 -.375E-16 -.869E-17   -.107E-15 -.648E-16 0.770E-16

 POSITION                                       TOTAL-FORCE (eV/Angst)
      2.45000      0.00000      0.63700        -0.000000      0.000000     -0.000000
      0.00000      0.00000      0.00000         0.000000     -0.000000      0.000000
    total drift:                                0.000000      0.000000     -0.000000

  FREE ENERGIE OF THE ION-ELECTRON SYSTEM (eV)
  free  energy   TOTEN  =       -10.24466777 eV

  energy  without entropy=      -10.23065689  energy(sigma->0) =      -10.23766233

[...]

 d Force = 0.0000000E+00[ 0.000E+00, 0.000E+00]  d Energy = 0.2182089E-01-0.218E-01
 d Force = 0.0000000E+00[ 0.000E+00, 0.000E+00]  d Ewald  =-0.5982381E-02 0.598E-02

 Steepest descent step on ions:
 trial-energy change:   -0.021821  1 .order   -0.022014   -0.038102   -0.005927
  (g-gl).g = 0.381E-01      g.g   = 0.381E-01  gl.gl    = 0.000E+00
 g(Force)  = 0.122E-46   g(Stress)= 0.381E-01 ortho     = 0.000E+00
 gamma     =   0.00000
 trial     =   1.00000
 opt step  =   1.18420  (harmonic =   1.18420) maximal distance =0.00000000
 next E    =   -10.267228   (d E  =  -0.02256)

[...]

 d Force = 0.0000000E+00[ 0.000E+00, 0.000E+00]  d Energy = 0.9030469E-03-0.903E-03
 d Force = 0.0000000E+00[ 0.000E+00, 0.000E+00]  d Ewald  =-0.8791617E-02 0.879E-02

[...]

 d Force = 0.0000000E+00[ 0.000E+00, 0.000E+00]  d Energy =-0.1333562E-02 0.133E-02
 d Force = 0.0000000E+00[ 0.000E+00, 0.000E+00]  d Ewald  =-0.2402086E-01 0.240E-01

[...]

 eigenvalues of (default mixing * dielectric matrix)
  average eigenvalue GAMMA=   2.2836
  2.2836

[...]

 d Force = 0.0000000E+00[ 0.000E+00, 0.000E+00]  d Energy = 0.1157934E-02-0.116E-02
 d Force = 0.0000000E+00[ 0.000E+00, 0.000E+00]  d Ewald  = 0.1628484E-01-0.163E-01

[...]

 eigenvalue-minimisations  :  3736
 total energy-change (2. order) :-0.3669158E-04  (-0.1930649E-03)
 number of electron       7.9999991 magnetization
 augmentation part       -0.4731820 magnetization

[...]

 d Force = 0.0000000E+00[ 0.000E+00, 0.000E+00]  d Energy = 0.2470479E-04-0.247E-04
 d Force = 0.0000000E+00[ 0.000E+00, 0.000E+00]  d Ewald  = 0.2829497E-02-0.283E-02

[...]

 Broyden mixing:
  rms(total) = 0.11956E-02    rms(broyden)= 0.11955E-02
  rms(prec ) = 0.36543E-02
  weight for this iteration     100.00

[...]

--------------------------------------- Iteration      8(   2)  ---------------------------------------

 eigenvalue-minimisations  :  1320
 total energy-change (2. order) : 0.3542601E-05  (-0.9672910E-06)
 number of electron       7.9999991 magnetization
 augmentation part       -0.4731994 magnetization

 Free energy of the ion-electron system (eV)
  alpha Z        PSCENC =         4.39541174
  Ewald energy   TEWEN  =      -265.16476838
  -Hartree energ DENC   =        -2.45681558
  -exchange      EXHF   =         0.00000000
  -V(xc)+E(xc)   XCENC  =       -17.58974312
  PAW double counting   =        70.38132745      -35.29602698
  entropy T*S    EENTRO =        -0.01266803
  eigenvalues    EBANDS =        29.34631121
  atomic energy  EATOM  =       206.12968587
  Solvation  Ediel_sol  =         0.00000000
  free energy    TOTEN  =       -10.26728582 eV

  energy without entropy =      -10.25461779  energy(sigma->0) =      -10.26095181

 average (electrostatic) potential at core
  the test charge radii are     0.9892
  (the norm of the test charge is              1.0000)
       1 -80.5588       2 -80.5588

 E-fermi :   9.0957     XC(G=0): -10.8869     alpha+bet :-15.6584

[...]

 k-point   159 :      -0.4583   -0.4583    0.4583
  band No.  band energies     occupation
      1       0.8529      2.00000
      2       0.8695      2.00000
      3       2.4752      2.00000
      4       2.4752      2.00000
      5      12.2951      0.00000
      6      18.1732      0.00000
      7      21.2692      0.00000
      8      21.4728      0.00000

 soft charge-density along one line, spin component           1
         0         1         2         3         4         5         6         7         8         9
 total charge-density along one line

------------------------ aborting loop because EDIFF is reached ----------------------------------------

  FORCE on cell =-STRESS in cart. coord.  units (eV):
  Direction    XX          YY          ZZ          XY          YZ          ZX
  Alpha Z     4.39541     4.39541     4.39541
  Ewald     -88.47216   -88.47216   -88.22069     0.00000    -0.00000    -0.00000
  Hartree     0.71933     0.71933     1.01795    -0.00000    -0.00000    -0.00000
  E(xc)     -25.43523   -25.43523   -25.32168     0.00001     0.00000     0.00000
  Local     -13.75884   -13.75884   -12.23704    -0.00005    -0.00003    -0.00003
  n-local    77.44287    77.37387    75.49462     1.19140    -0.43935    -0.52983
  augment   -12.11201   -12.11201   -11.91045     0.00003     0.00003     0.00003
  Kinetic    56.40473    58.06620    56.78422     3.36093    -1.79304    -2.95166
  Fock        0.00000     0.00000     0.00000     0.00000     0.00000     0.00000
  Total      -0.01967    -0.01967     0.00235     0.00000     0.00000     0.00000
  in kB      -1.02885    -1.02885     0.12294     0.00000     0.00000     0.00000

 VOLUME and BASIS-vectors are now :
  energy-cutoff  :      300.00
  volume of cell :       30.63
      direct lattice vectors                 reciprocal lattice vectors
    -2.415067999  2.415067999  1.313093157     0.000000000  0.207033508  0.380780295
     2.415067999 -2.415067999  1.313093157     0.207033508  0.000000000  0.380780295
     2.415067999  2.415067999 -1.313093157     0.207033508  0.207033508  0.000000000

  length of vectors
     3.659142047  3.659142047  3.659142047     0.433424165  0.433424165  0.292789595

 FORCES acting on ions
    electron-ion (+dipol)            ewald-force                    non-local-force                 convergence-correction
   0.372E-06 -.372E-06 -.236E-13   0.110E-14 -.131E-14 -.350E-15   0.138E-15 -.132E-15 -.136E-16   0.418E-09 -.418E-09 -.110E-15
   -.372E-06 0.372E-06 -.104E-14   -.108E-14 0.990E-15 0.591E-15   -.137E-15 0.113E-15 0.161E-16   -.418E-09 0.418E-09 0.453E-16
   0.745E-14 0.768E-14 -.246E-13   0.159E-16 -.317E-15 0.242E-15   0.121E-17 -.196E-16 0.245E-17   -.185E-16 0.623E-16 -.647E-16

 POSITION                                       TOTAL-FORCE (eV/Angst)
      2.41507      0.00000      0.65655        -0.000000     -0.000000     -0.000000
      0.00000     -0.00000      0.00000         0.000000      0.000000      0.000000
    total drift:                                0.000000      0.000000     -0.000000

  FREE ENERGIE OF THE ION-ELECTRON SYSTEM (eV)
  free  energy   TOTEN  =       -10.26728582 eV

  energy  without entropy=      -10.25461779  energy(sigma->0) =      -10.26095181

 d Force = 0.0000000E+00[ 0.000E+00, 0.000E+00]  d Energy =-0.1986211E-04 0.199E-04
 d Force = 0.0000000E+00[ 0.000E+00, 0.000E+00]  d Ewald  = 0.1209557E-02-0.121E-02

 reached required accuracy - stopping structural energy minimisation
 writing wavefunctions