 vasp.5.4.4.18Apr17-6-g9f103f2a35 (build Dec 09 2018 21:25:21) complex

 executed on IFC18.0.1.163_CrayMP date 2019.03.20  09:20:11

 INCAR:
 POTCAR:   PAW_PBE Si 05Jan2001

 POTCAR:   PAW_PBE Si 05Jan2001
   VRHFIN =Si: s2p2

   TITEL  = PAW_PBE Si 05Jan2001
   POMASS =   28.085; ZVAL   =    4.000    mass and valenz
   ENMAX  =  245.345; ENMIN  =  184.009 eV
   QCUT   =   -4.246; QGAM   =    8.493    optimization parameters

   Description
     l     E      TYP  RCUT    TYP  RCUT
     0   .000     23  1.900
     0   .000     23  1.900
     1   .000     23  1.900
     1   .000     23  1.900
     2   .000      7  1.900

 PAW_PBE Si 05Jan2001                   :

 POSCAR: Si2
  positions in direct lattice
 exchange correlation table for  LEXCH =        8
   RHO(1)=    0.500       N(1)  =     2000
   RHO(2)=  100.500       N(2)  =     4000

 ion  position               nearest neighbor table
   1  0.250  0.750  0.500-   2 2.53   2 2.53   2 2.53   2 2.53   2 3.11   2 3.11   2 3.11   2 3.11

   2  0.000  0.000  0.000-   1 2.53   1 2.53   1 2.53   1 2.53   1 3.11   1 3.11   1 3.11   1 3.11

  LATTYP: Found a body centered tetragonal cell.
 ALAT       =     4.9000000000
 C/A-ratio  =     0.5200000000

  Lattice vectors:

 A1 = (  -2.4500000000,   2.4500000000,   1.2740000000)
 A2 = (   2.4500000000,  -2.4500000000,   1.2740000000)
 A3 = (   2.4500000000,   2.4500000000,  -1.2740000000)

Analysis of symmetry for initial positions (statically):
 Subroutine PRICEL returns:
 Original cell was already a primitive cell.

 Routine SETGRP: Setting up the symmetry group for a
 body centered tetragonal supercell.

 Subroutine GETGRP returns: Found 16 space group operations
 (whereof  8 operations were pure point group operations)
 out of a pool of 16 trial point group operations.

The static configuration has the point symmetry D_2d.
 The point group associated with its full space group is D_4h.

Analysis of symmetry for dynamics (positions and initial velocities):
 Subroutine PRICEL returns:
 Original cell was already a primitive cell.

 Routine SETGRP: Setting up the symmetry group for a
 body centered tetragonal supercell.

 Subroutine GETGRP returns: Found 16 space group operations
 (whereof  8 operations were pure point group operations)
 out of a pool of 16 trial point group operations.

The dynamic configuration has the point symmetry D_2d.
 The point group associated with its full space group is D_4h.

 Subroutine INISYM returns: Found 16 space group operations
 (whereof  8 operations are pure point group operations),
 and found     1 'primitive' translations

 KPOINTS: Automatic kpoint scheme

Automatic generation of k-mesh.
Space group operators:
 irot       det(A)        alpha          n_x          n_y          n_z        tau_x        tau_y        tau_z
    1     1.000000     0.000000     1.000000     0.000000     0.000000     0.000000     0.000000     0.000000
    2    -1.000000    90.000000    -0.000000    -0.000000    -1.000000     0.000000     0.000000     0.000000
    3     1.000000   180.000000    -0.000000    -0.000000    -1.000000     0.000000     0.000000     0.000000
    4    -1.000000    90.000000    -0.000000     0.000000     1.000000     0.000000     0.000000     0.000000
    5    -1.000000   180.000000     0.000000    -1.000000     0.000000     0.000000     0.000000     0.000000
    6     1.000000   180.000000     0.707107     0.707107    -0.000000     0.000000     0.000000     0.000000
    7    -1.000000   180.000000     1.000000     0.000000     0.000000     0.000000     0.000000     0.000000
    8     1.000000   180.000000     0.707107    -0.707107     0.000000     0.000000     0.000000     0.000000
    9    -1.000000     0.000000     1.000000     0.000000     0.000000     0.250000     0.750000     0.500000
   10     1.000000    90.000000    -0.000000    -0.000000    -1.000000     0.250000     0.750000     0.500000
   11    -1.000000   180.000000    -0.000000    -0.000000    -1.000000     0.250000     0.750000     0.500000
   12     1.000000    90.000000    -0.000000     0.000000     1.000000     0.250000     0.750000     0.500000
   13     1.000000   180.000000     0.000000    -1.000000     0.000000     0.250000     0.750000     0.500000
   14    -1.000000   180.000000     0.707107     0.707107    -0.000000     0.250000     0.750000     0.500000
   15     1.000000   180.000000     1.000000     0.000000     0.000000     0.250000     0.750000     0.500000
   16    -1.000000   180.000000     0.707107    -0.707107     0.000000     0.250000     0.750000     0.500000

 Subroutine IBZKPT returns following result:

 Found      3 irreducible k-points:

 Following reciprocal coordinates:
            Coordinates               Weight
  0.250000  0.250000  0.250000     32.000000
 -0.250000  0.250000  0.250000     64.000000
 -0.250000 -0.250000  0.250000     32.000000

 Following cartesian coordinates:
            Coordinates               Weight
  0.102041  0.102041  0.196232     32.000000
  0.102041  0.000000  0.000000     64.000000
 -0.000000  0.000000 -0.196232     32.000000

 SYSTEM =  unknown system
 POSCAR =  Si2

 Startparameter for this run:
   NWRITE =      2    write-flag & timer
   PREC   = normal    normal or accurate (medium, high low for compatibility)
   ISTART =      0    job   : 0-new  1-cont  2-samecut
   ICHARG =      2    charge: 1-file 2-atom 10-const
   ISPIN  =      1    spin polarized calculation?
   LNONCOLLINEAR =      F non collinear calculations
   LSORBIT =      F    spin-orbit coupling
   INIWAV =      1    electr: 0-lowe 1-rand  2-diag
   LASPH  =      F    aspherical Exc in radial PAW
   METAGGA=      F    non-selfconsistent MetaGGA calc.

 Electronic Relaxation 1
   ENCUT  =  250.0 eV  18.37 Ry    4.29 a.u.   4.76  4.76  4.76*2*pi/ulx,y,z
   ENINI  =  250.0     initial cutoff
   ENAUG  =  322.1 eV  augmentation charge cutoff
   NELM   =     60;   NELMIN=  2; NELMDL= -5     # of ELM steps
   EDIFF  = 0.4E-03   stopping-criterion for ELM
   LREAL  =      F    real-space projection
   NLSPLINE    = F    spline interpolate recip. space projectors
   LCOMPAT=      F    compatible to vasp.4.4
   GGA_COMPAT  = T    GGA compatible to vasp.4.4-vasp.4.6
   LMAXPAW     = -100 max onsite density
   LMAXMIX     =    2 max onsite mixed and CHGCAR
   VOSKOWN=      0    Vosko Wilk Nusair interpolation
   ROPT   =    0.00000
 Ionic relaxation
   EDIFFG = -.1E-01   stopping-criterion for IOM
   NSW    =     15    number of steps for IOM
   NBLOCK =      1;   KBLOCK =     15    inner block; outer block
   IBRION =      2    ionic relax: 0-MD 1-quasi-New 2-CG
   NFREE  =      1    steps in history (QN), initial steepest desc. (CG)
   ISIF   =      3    stress and relaxation
   IWAVPR =     11    prediction:  0-non 1-charg 2-wave 3-comb
   ISYM   =      2    0-nonsym 1-usesym 2-fastsym
   LCORR  =      T    Harris-Foulkes like correction to forces

   POTIM  = 0.5000    time-step for ionic-motion
   TEIN   =    0.0    initial temperature
   TEBEG  =    0.0;   TEEND  =   0.0 temperature during run
   SMASS  =  -3.00    Nose mass-parameter (am)
   estimated Nose-frequenzy (Omega)   =  0.10E-29 period in steps =****** mass=  -0.311E-27a.u.
   SCALEE = 1.0000    scale energy and forces
   NPACO  =    256;   APACO  = 16.0  distance and # of slots for P.C.
   PSTRESS=    0.0 pullay stress

  Mass of Ions in am
   POMASS =  28.09
  Ionic Valenz
   ZVAL   =   4.00
  Atomic Wigner-Seitz radii
  virtual crystal weights
   VCA    =   1.00
   NELECT =       8.0000    total number of electrons
   NUPDOWN=      -1.0000    fix difference up-down

 DOS related values:
   EMIN   =  10.00;   EMAX   =-10.00  energy-range for DOS
   EFERMI =   0.00
   ISMEAR =     0;   SIGMA  =   0.20  broadening in eV -4-tet -1-fermi 0-gaus

 Electronic relaxation 2 (details)
   IALGO  =     38    algorithm
   LDIAG  =      T    sub-space diagonalisation (order eigenvalues)
   LSUBROT=      F    optimize rotation matrix (better conditioning)
   TURBO    =      0    0=normal 1=particle mesh
   IRESTART =      0    0=no restart 2=restart with 2 vectors
   NREBOOT  =      0    no. of reboots
   NMIN     =      0    reboot dimension
   EREF     =   0.00    reference energy to select bands
   IMIX   =      4    mixing-type and parameters
     AMIX     =   0.40;   BMIX     =  1.00
     AMIX_MAG =   1.60;   BMIX_MAG =  1.00
     AMIN     =   0.10
     WC   =   100.;   INIMIX=   1;  MIXPRE=   1;  MAXMIX= -45

 Intra band minimization:
   WEIMIN = 0.0010     energy-eigenvalue tresh-hold
   EBREAK =  0.13E-04  absolut break condition
   DEPER  =   0.30     relativ break condition

   TIME   =   0.40     timestep for ELM

  volume/ion in A,a.u.               =      15.29       103.21
  Fermi-wavevector in a.u.,A,eV,Ry     =   1.046930  1.978411 14.912834  1.096062
  Thomas-Fermi vector in A             =   2.181789

 Write flags
   LWAVE        =      T    write WAVECAR
   LDOWNSAMPLE  =      F    k-point downsampling of WAVECAR
   LCHARG       =      T    write CHGCAR
   LVTOT        =      F    write LOCPOT, total local potential
   LVHAR        =      F    write LOCPOT, Hartree potential only
   LELF         =      F    write electronic localiz. function (ELF)
   LORBIT       =      0    0 simple, 1 ext, 2 COOP (PROOUT), +10 PAW based schemes

 Dipole corrections
   LMONO  =      F    monopole corrections only (constant potential shift)
   LDIPOL =      F    correct potential (dipole corrections)
   IDIPOL =      0    1-x, 2-y, 3-z, 4-all directions
   EPSILON=  1.0000000 bulk dielectric constant

 Exchange correlation treatment:
   GGA     =    --    GGA type
   VOSKOWN=      0    Vosko Wilk Nusair interpolation
   LHFCALC =     F    Hartree Fock is set to
   LHFONE  =     F    Hartree Fock one center treatment
   AEXX    =    0.0000 exact exchange contribution

 Linear response parameters
   LEPSILON=     F    determine dielectric tensor
   LRPA    =     F    only Hartree local field effects (RPA)
   LNABLA  =     F    use nabla operator in PAW spheres
   LVEL    =     F    velocity operator in full k-point grid
   LINTERFAST=   F  fast interpolation
   KINTER  =     0    interpolate to denser k-point grid
   CSHIFT  =0.1000    complex shift for real part using Kramers Kronig
   OMEGAMAX=  -1.0    maximum frequency
   DEG_THRESHOLD= 0.2000000E-02 threshold for treating states as degnerate
   RTIME   =   -0.100 relaxation time in fs
  (WPLASMAI=    0.000 imaginary part of plasma frequency in eV, 0.658/RTIME)
   DFIELD  = 0.0000000 0.0000000 0.0000000 field for delta impulse in time

 Orbital magnetization related:
   ORBITALMAG=     F  switch on orbital magnetization
   LCHIMAG   =     F  perturbation theory with respect to B field
   DQ        =  0.001000  dq finite difference perturbation B field
   LLRAUG    =     F  two centre corrections for induced B field

 conjugate gradient relaxation of ions
 charge density and potential will be updated during run
 non-spin polarized calculation
 Variant of blocked Davidson
 Davidson routine will perform the subspace rotation
 perform sub-space diagonalisation
    after iterative eigenvector-optimisation
 modified Broyden-mixing scheme, WC =      100.0
 initial mixing is a Kerker type mixing with AMIX =  0.4000 and BMIX =      1.0000
 Hartree-type preconditioning will be used
 using additional bands            4
 reciprocal scheme for non local part
 use partial core corrections
 calculate Harris-corrections to forces
   (improved forces if not selfconsistent)
 use gradient corrections
 use of overlap-Matrix (Vanderbilt PP)
 Gauss-broadening in eV      SIGMA  =   0.20

  energy-cutoff  :      250.00
  volume of cell :       30.59
      direct lattice vectors                 reciprocal lattice vectors
    -2.450000000  2.450000000  1.274000000     0.000000000  0.204081633  0.392464678
     2.450000000 -2.450000000  1.274000000     0.204081633  0.000000000  0.392464678
     2.450000000  2.450000000 -1.274000000     0.204081633  0.204081633 -0.000000000

  length of vectors
     3.691622408  3.691622408  3.691622408     0.442354876  0.442354876  0.288615013

 k-points in units of 2pi/SCALE and weight: Automatic kpoint scheme
   0.10204082  0.10204082  0.19623234       0.250
   0.10204082  0.00000000 -0.00000000       0.500
   0.00000000  0.00000000 -0.19623234       0.250

 k-points in reciprocal lattice and weights: Automatic kpoint scheme
   0.25000000  0.25000000  0.25000000       0.250
  -0.25000000  0.25000000  0.25000000       0.500
  -0.25000000 -0.25000000  0.25000000       0.250

 position of ions in fractional coordinates (direct lattice)
   0.25000000  0.75000000  0.50000000
   0.00000000  0.00000000  0.00000000

 position of ions in cartesian coordinates  (Angst):
   2.45000000  0.00000000  0.63700000
   0.00000000  0.00000000  0.00000000

 k-point  1 :   0.2500 0.2500 0.2500  plane waves:     268
 k-point  2 :  -0.2500 0.2500 0.2500  plane waves:     272
 k-point  3 :  -0.2500-0.2500 0.2500  plane waves:     267

 maximum and minimum number of plane-waves per node :       272      267

 maximum number of plane-waves:       272
 maximum index in each direction:
   IXMAX=    4   IYMAX=    4   IZMAX=    4
   IXMIN=   -4   IYMIN=   -4   IZMIN=   -4

 serial   3D FFT for wavefunctions
 parallel 3D FFT for charge:
    minimum data exchange during FFTs selected (reduces bandwidth)

 Broyden mixing: mesh for mixing (old mesh)
   NGX =  9   NGY =  9   NGZ =  9
  (NGX  = 28   NGY  = 28   NGZ  = 28)
  gives a total of    729 points

 initial charge density was supplied:
 charge density of overlapping atoms calculated
 number of electron       8.0000000 magnetization
 keeping initial charge density in first step

 Maximum index for augmentation-charges          442 (set IRDMAX)

 First call to EWALD:  gamma=   0.567
 Maximum number of real-space cells 4x 4x 3
 Maximum number of reciprocal cells 3x 3x 3

--------------------------------------- Iteration      1(   1)  ---------------------------------------

 eigenvalue-minimisations  :    48
 total energy-change (2. order) :-0.4350277E+01  (-0.2254902E+03)
 number of electron       8.0000000 magnetization
 augmentation part        8.0000000 magnetization

 Free energy of the ion-electron system (eV)
  alpha Z        PSCENC =         4.40202223
  Ewald energy   TEWEN  =      -265.18101312
  -Hartree energ DENC   =        -2.30415367
  -exchange      EXHF   =         0.00000000
  -V(xc)+E(xc)   XCENC  =       -17.81545108
  PAW double counting   =        65.95520812      -30.76852678
  entropy T*S    EENTRO =        -0.07189222
  eigenvalues    EBANDS =        35.31003026
  atomic energy  EATOM  =       206.12349923
  Solvation  Ediel_sol  =         0.00000000
  free energy    TOTEN  =        -4.35027704 eV

  energy without entropy =       -4.27838482  energy(sigma->0) =       -4.31433093

[...]

 Broyden mixing:
  rms(total) = 0.13922E+00    rms(broyden)= 0.13920E+00
  rms(prec ) = 0.32081E+00
  weight for this iteration     100.00

[...]

 eigenvalue-minimisations  :    64
 total energy-change (2. order) : 0.1182137E-01  (-0.4538910E-03)
 number of electron       7.9999993 magnetization
 augmentation part       -0.4734158 magnetization

[...]

 eigenvalues of (default mixing * dielectric matrix)
  average eigenvalue GAMMA=   2.6343
  2.6343

[...]

 average (electrostatic) potential at core
  the test charge radii are     0.9892
  (the norm of the test charge is              1.0000)
       1 -80.6799       2 -80.6799

 E-fermi :   8.5215     XC(G=0): -10.9121     alpha+bet :-15.6819

 k-point     1 :       0.2500    0.2500    0.2500
  band No.  band energies     occupation
      1       3.3755      2.00000
      2       3.3755      2.00000
      3       4.0270      2.00000
      4       4.0270      2.00000
      5      13.1977      0.00000
      6      13.1977      0.00000
      7      15.0072      0.00000
      8      15.0072      0.00000

[...]

 soft charge-density along one line, spin component           1
         0         1         2         3         4         5         6         7         8         9
 total charge-density along one line

------------------------ aborting loop because EDIFF is reached ----------------------------------------

  FORCE on cell =-STRESS in cart. coord.  units (eV):
  Direction    XX          YY          ZZ          XY          YZ          ZX
  Alpha Z     4.40202     4.40202     4.40202
  Ewald     -90.96023   -90.96023   -83.26083    -0.00000     0.00000     0.00000
  Hartree     0.52340     0.52340     1.20502     0.00000     0.00000     0.00000
  E(xc)     -25.35327   -25.35327   -25.27983     0.00003     0.00001     0.00001
  Local     -11.19192   -11.19192   -16.43648    -0.00004    -0.00005    -0.00005
  n-local    76.79000    77.67596    76.21313     0.00015    -0.00001     0.00012
  augment   -12.09137   -12.09137   -12.29485     0.00005     0.00005     0.00005
  Kinetic    51.94685    53.85376    59.97559    -0.00003    -0.00002    -0.00001
  Fock        0.00000     0.00000     0.00000     0.00000     0.00000     0.00000
  Total      -4.53807    -4.53807     4.52377     0.00000    -0.00000     0.00000
  in kB    -237.69523  -237.69523   236.94595     0.00000    -0.00000     0.00000

 VOLUME and BASIS-vectors are now :
  energy-cutoff  :      250.00
  volume of cell :       30.59
      direct lattice vectors                 reciprocal lattice vectors
    -2.450000000  2.450000000  1.274000000     0.000000000  0.204081633  0.392464678
     2.450000000 -2.450000000  1.274000000     0.204081633  0.000000000  0.392464678
     2.450000000  2.450000000 -1.274000000     0.204081633  0.204081633 -0.000000000

[...]

 FORCES acting on ions
    electron-ion (+dipol)            ewald-force                    non-local-force                 convergence-correction
   0.560E-05 -.560E-05 0.110E-13   0.198E-14 0.156E-15 0.342E-17   0.327E-17 0.565E-18 0.244E-17   -.173E-06 0.173E-06 -.207E-15
   -.560E-05 0.560E-05 -.401E-14   -.185E-14 0.943E-16 0.891E-15   -.300E-17 -.368E-19 -.296E-17   0.173E-06 -.173E-06 0.519E-16
   -.134E-13 0.156E-13 0.697E-14   0.139E-15 0.250E-15 0.894E-15   0.268E-18 0.529E-18 -.518E-18   -.529E-16 -.152E-15 -.155E-15

 POSITION                                       TOTAL-FORCE (eV/Angst)
      2.45000      0.00000      0.63700        -0.000000     -0.000000      0.000000
      0.00000      0.00000      0.00000         0.000000      0.000000     -0.000000
    total drift:                               -0.000000      0.000000      0.000000

  FREE ENERGIE OF THE ION-ELECTRON SYSTEM (eV)
  free  energy   TOTEN  =       -12.01080269 eV

  energy  without entropy=      -11.95438373  energy(sigma->0) =      -11.98259321

[...]

 d Force = 0.0000000E+00[ 0.000E+00, 0.000E+00]  d Energy =-0.2858077E+00 0.286E+00
 d Force = 0.0000000E+00[ 0.000E+00, 0.000E+00]  d Ewald  = 0.1023571E+02-0.102E+02

 Steepest descent step on ions:
 trial-energy change:    0.285808  1 .order    0.237941   -1.487145    1.963027
  (g-gl).g = 0.149E+01      g.g   = 0.149E+01  gl.gl    = 0.000E+00
 g(Force)  = 0.686E-45   g(Stress)= 0.149E+01 ortho     = 0.000E+00
 gamma     =   0.00000
 trial     =   1.00000
 opt step  =   0.41089  (harmonic =   0.43103) maximal distance =0.00000000
 next E    =   -12.313005   (d E  =  -0.30220)

[...]

 eigenvalues of (default mixing * dielectric matrix)
  average eigenvalue GAMMA=   1.6056
  0.9206  2.2906

[...]

 d Force = 0.0000000E+00[ 0.000E+00, 0.000E+00]  d Energy = 0.6067186E+00-0.607E+00
 d Force = 0.0000000E+00[ 0.000E+00, 0.000E+00]  d Ewald  =-0.5924109E+01 0.592E+01

[...]

 d Force = 0.0000000E+00[ 0.000E+00, 0.000E+00]  d Energy = 0.4540127E-03-0.454E-03
 d Force = 0.0000000E+00[ 0.000E+00, 0.000E+00]  d Ewald  = 0.1493112E+00-0.149E+00

[...]

 d Force = 0.0000000E+00[ 0.000E+00, 0.000E+00]  d Energy =-0.3265340E-04 0.327E-04
 d Force = 0.0000000E+00[ 0.000E+00, 0.000E+00]  d Ewald  = 0.1475749E-01-0.148E-01

[...]

 d Force = 0.0000000E+00[ 0.000E+00, 0.000E+00]  d Energy = 0.1550772E-05-0.155E-05
 d Force = 0.0000000E+00[ 0.000E+00, 0.000E+00]  d Ewald  =-0.9516381E-02 0.952E-02

[...]

 d Force = 0.0000000E+00[ 0.000E+00, 0.000E+00]  d Energy =-0.4588088E-06 0.459E-06
 d Force = 0.0000000E+00[ 0.000E+00, 0.000E+00]  d Ewald  =-0.2934553E-02 0.293E-02

[...]

 Broyden mixing:
  rms(total) = 0.10216E-04    rms(broyden)= 0.97012E-05
  rms(prec ) = 0.29883E-04
  weight for this iteration     100.00

[...]

 Broyden mixing:
  rms(total) = 0.57959E-05    rms(broyden)= 0.48369E-05
  rms(prec ) = 0.14903E-04
  weight for this iteration     100.00
  WARNING: grid for Broyden might be to small

[...]

 eigenvalue-minimisations  :    24
 total energy-change (2. order) : 0.3720174E-08  (-0.1720180E-11)
 number of electron       7.9999996 magnetization
 augmentation part       -0.4816280 magnetization

 Broyden mixing:
  rms(total) = 0.32054E-05    rms(broyden)= 0.31187E-06
  rms(prec ) = 0.96132E-06
  weight for this iteration     100.00
  WARNING: grid for Broyden might be to small

[...]

--------------------------------------- Iteration     15(   2)  ---------------------------------------

 eigenvalue-minimisations  :    24
 total energy-change (2. order) :-0.7674998E-09  (-0.6977752E-13)
 number of electron       7.9999996 magnetization
 augmentation part       -0.4816280 magnetization

 Free energy of the ion-electron system (eV)
  alpha Z        PSCENC =         4.62776237
  Ewald energy   TEWEN  =      -269.64193777
  -Hartree energ DENC   =        -2.05230769
  -exchange      EXHF   =         0.00000000
  -V(xc)+E(xc)   XCENC  =       -17.32540073
  PAW double counting   =        71.76743526      -36.70076382
  entropy T*S    EENTRO =        -0.05641896
  eigenvalues    EBANDS =        30.92599657
  atomic energy  EATOM  =       206.12349923
  Solvation  Ediel_sol  =         0.00000000
  free energy    TOTEN  =       -12.33213554 eV

  energy without entropy =      -12.27571659  energy(sigma->0) =      -12.30392606

 average (electrostatic) potential at core
  the test charge radii are     0.9892
  (the norm of the test charge is              1.0000)
       1 -79.9651       2 -79.9651

 E-fermi :   9.8257     XC(G=0): -11.1119     alpha+bet :-16.4861

[...]

 k-point     3 :      -0.2500   -0.2500    0.2500
  band No.  band energies     occupation
      1       0.5324      2.00000
      2       6.3825      2.00000
      3       6.5484      2.00000
      4       7.1900      2.00000
      5       7.1900      2.00000
      6      13.0143      0.00000
      7      13.0144      0.00000
      8      13.1927      0.00000

 soft charge-density along one line, spin component           1
         0         1         2         3         4         5         6         7         8         9
 total charge-density along one line

------------------------ aborting loop because EDIFF is reached ----------------------------------------

  FORCE on cell =-STRESS in cart. coord.  units (eV):
  Direction    XX          YY          ZZ          XY          YZ          ZX
  Alpha Z     4.62776     4.62776     4.62776
  Ewald     -87.46201   -87.46201   -94.71814    -0.00000    -0.00000     0.00000
  Hartree     0.78475     0.78475     0.48281     0.00000     0.00000     0.00000
  E(xc)     -25.75938   -25.75938   -25.56107     0.00001     0.00000     0.00000
  Local     -15.63106   -15.63106    -5.69120    -0.00003    -0.00004    -0.00004
  n-local    78.97788    79.31858    75.66829     0.00010     0.00005     0.00005
  augment   -12.32851   -12.32851   -12.08153     0.00005     0.00005     0.00005
  Kinetic    55.04695    57.65509    56.70102    -0.00003    -0.00001    -0.00001
  Fock        0.00000     0.00000     0.00000     0.00000     0.00000     0.00000
  Total      -0.26919    -0.26919    -0.57206     0.00000     0.00000    -0.00000
  in kB     -14.82260   -14.82260   -31.50014     0.00000     0.00000    -0.00000

 VOLUME and BASIS-vectors are now :
  energy-cutoff  :      250.00
  volume of cell :       29.10
      direct lattice vectors                 reciprocal lattice vectors
    -2.335884757  2.335884757  1.333152872    -0.000000000  0.214051656  0.375050762
     2.335884757 -2.335884757  1.333152872     0.214051656 -0.000000000  0.375050762
     2.335884757  2.335884757 -1.333152872     0.214051656  0.214051656  0.000000000

  length of vectors
     3.562304279  3.562304279  3.562304279     0.431834673  0.431834673  0.302714755

 FORCES acting on ions
    electron-ion (+dipol)            ewald-force                    non-local-force                 convergence-correction
   0.435E-05 -.435E-05 0.500E-15   0.412E-15 0.230E-14 -.488E-15   -.456E-17 0.382E-17 0.101E-18   -.376E-11 0.376E-11 -.344E-15
   -.435E-05 0.435E-05 0.600E-14   -.272E-15 -.205E-14 0.504E-15   0.424E-17 -.395E-17 -.129E-17   0.376E-11 -.376E-11 0.369E-15
   -.186E-13 0.941E-14 0.650E-14   0.141E-15 0.252E-15 0.161E-16   -.329E-18 -.133E-18 -.119E-17   -.104E-15 -.691E-17 0.250E-16

 POSITION                                       TOTAL-FORCE (eV/Angst)
      2.33588      0.00000      0.66658         0.000000      0.000000     -0.000000
      0.00000      0.00000     -0.00000        -0.000000     -0.000000      0.000000
    total drift:                               -0.000000      0.000000      0.000000

  FREE ENERGIE OF THE ION-ELECTRON SYSTEM (eV)
  free  energy   TOTEN  =       -12.33213554 eV

  energy  without entropy=      -12.27571659  energy(sigma->0) =      -12.30392606

 d Force = 0.0000000E+00[ 0.000E+00, 0.000E+00]  d Energy =-0.2503327E-08 0.250E-08
 d Force = 0.0000000E+00[ 0.000E+00, 0.000E+00]  d Ewald  =-0.9097800E-05 0.910E-05

 writing wavefunctions