 vasp.5.4.4.18Apr17-6-g9f103f2a35 (build Dec 09 2018 21:25:21) complex

 executed on IFC18.0.1.163_CrayMP date 2019.03.20  09:08:50

 INCAR:
 POTCAR:   PAW_PBE Si 05Jan2001

 POTCAR:   PAW_PBE Si 05Jan2001
   VRHFIN =Si: s2p2

   TITEL  = PAW_PBE Si 05Jan2001
   POMASS =   28.085; ZVAL   =    4.000    mass and valenz
   ENMAX  =  245.345; ENMIN  =  184.009 eV
   QCUT   =   -4.246; QGAM   =    8.493    optimization parameters

   Description
     l     E      TYP  RCUT    TYP  RCUT
     0   .000     23  1.900
     0   .000     23  1.900
     1   .000     23  1.900
     1   .000     23  1.900
     2   .000      7  1.900

 PAW_PBE Si 05Jan2001                   :

 POSCAR: Si2
  positions in direct lattice
 exchange correlation table for  LEXCH =        8
   RHO(1)=    0.500       N(1)  =     2000
   RHO(2)=  100.500       N(2)  =     4000

 ion  position               nearest neighbor table
   1  0.250  0.750  0.500-   2 2.53   2 2.53   2 2.53   2 2.53   2 3.11   2 3.11   2 3.11   2 3.11

   2  0.000  0.000  0.000-   1 2.53   1 2.53   1 2.53   1 2.53   1 3.11   1 3.11   1 3.11   1 3.11

  LATTYP: Found a body centered tetragonal cell.
 ALAT       =     4.9000000000
 C/A-ratio  =     0.5200000000

  Lattice vectors:

 A1 = (  -2.4500000000,   2.4500000000,   1.2740000000)
 A2 = (   2.4500000000,  -2.4500000000,   1.2740000000)
 A3 = (   2.4500000000,   2.4500000000,  -1.2740000000)

Analysis of symmetry for initial positions (statically):
 Subroutine PRICEL returns:
 Original cell was already a primitive cell.

 Routine SETGRP: Setting up the symmetry group for a
 body centered tetragonal supercell.

 Subroutine GETGRP returns: Found 16 space group operations
 (whereof  8 operations were pure point group operations)
 out of a pool of 16 trial point group operations.

The static configuration has the point symmetry D_2d.
 The point group associated with its full space group is D_4h.

Analysis of symmetry for dynamics (positions and initial velocities):
 Subroutine PRICEL returns:
 Original cell was already a primitive cell.

 Routine SETGRP: Setting up the symmetry group for a
 body centered tetragonal supercell.

 Subroutine GETGRP returns: Found 16 space group operations
 (whereof  8 operations were pure point group operations)
 out of a pool of 16 trial point group operations.

The dynamic configuration has the point symmetry D_2d.
 The point group associated with its full space group is D_4h.

 Subroutine INISYM returns: Found 16 space group operations
 (whereof  8 operations are pure point group operations),
 and found     1 'primitive' translations

 KPOINTS: Automatic kpoint scheme

Automatic generation of k-mesh.
Space group operators:
 irot       det(A)        alpha          n_x          n_y          n_z        tau_x        tau_y        tau_z
    1     1.000000     0.000000     1.000000     0.000000     0.000000     0.000000     0.000000     0.000000
    2    -1.000000    90.000000    -0.000000    -0.000000    -1.000000     0.000000     0.000000     0.000000
    3     1.000000   180.000000    -0.000000    -0.000000    -1.000000     0.000000     0.000000     0.000000
    4    -1.000000    90.000000    -0.000000     0.000000     1.000000     0.000000     0.000000     0.000000
    5    -1.000000   180.000000     0.000000    -1.000000     0.000000     0.000000     0.000000     0.000000
    6     1.000000   180.000000     0.707107     0.707107    -0.000000     0.000000     0.000000     0.000000
    7    -1.000000   180.000000     1.000000     0.000000     0.000000     0.000000     0.000000     0.000000
    8     1.000000   180.000000     0.707107    -0.707107     0.000000     0.000000     0.000000     0.000000
    9    -1.000000     0.000000     1.000000     0.000000     0.000000     0.250000     0.750000     0.500000
   10     1.000000    90.000000    -0.000000    -0.000000    -1.000000     0.250000     0.750000     0.500000
   11    -1.000000   180.000000    -0.000000    -0.000000    -1.000000     0.250000     0.750000     0.500000
   12     1.000000    90.000000    -0.000000     0.000000     1.000000     0.250000     0.750000     0.500000
   13     1.000000   180.000000     0.000000    -1.000000     0.000000     0.250000     0.750000     0.500000
   14    -1.000000   180.000000     0.707107     0.707107    -0.000000     0.250000     0.750000     0.500000
   15     1.000000   180.000000     1.000000     0.000000     0.000000     0.250000     0.750000     0.500000
   16    -1.000000   180.000000     0.707107    -0.707107     0.000000     0.250000     0.750000     0.500000

 Subroutine IBZKPT returns following result:

 Found     56 irreducible k-points:

 Following reciprocal coordinates:
            Coordinates               Weight
  0.062500  0.062500  0.062500    128.000000
  0.187500  0.062500  0.062500    256.000000
  0.312500  0.062500  0.062500    256.000000
  0.437500  0.062500  0.062500    128.000000
 -0.062500  0.062500  0.062500     64.000000
  0.187500  0.187500  0.062500    128.000000
  0.312500  0.187500  0.062500    256.000000
  0.437500  0.187500  0.062500    256.000000
 -0.437500  0.187500  0.062500    256.000000
 -0.312500  0.187500  0.062500    128.000000
 -0.187500  0.187500  0.062500    128.000000
 -0.062500  0.187500  0.062500    128.000000
  0.312500  0.312500  0.062500    128.000000
  0.437500  0.312500  0.062500    256.000000
 -0.437500  0.312500  0.062500    128.000000
 -0.312500  0.312500  0.062500    128.000000
 -0.187500  0.312500  0.062500    256.000000
 -0.062500  0.312500  0.062500    128.000000
  0.437500  0.437500  0.062500     64.000000
 -0.437500  0.437500  0.062500    128.000000
 -0.312500  0.437500  0.062500    256.000000
 -0.187500  0.437500  0.062500    256.000000
 -0.062500  0.437500  0.062500    128.000000
 -0.437500 -0.437500  0.062500    128.000000
 -0.312500 -0.437500  0.062500    256.000000
 -0.187500 -0.437500  0.062500    256.000000
 -0.062500 -0.437500  0.062500    128.000000
 -0.312500 -0.312500  0.062500    128.000000
 -0.187500 -0.312500  0.062500    256.000000
 -0.062500 -0.312500  0.062500    128.000000
 -0.187500 -0.187500  0.062500    128.000000
 -0.062500 -0.187500  0.062500    128.000000
 -0.062500 -0.062500  0.062500     32.000000
  0.187500  0.187500  0.187500    128.000000
  0.312500  0.187500  0.187500    128.000000
 -0.187500  0.187500  0.187500     64.000000
  0.312500  0.312500  0.187500     64.000000
 -0.312500  0.312500  0.187500    128.000000
 -0.187500  0.312500  0.187500    128.000000
 -0.437500  0.437500  0.187500    128.000000
 -0.312500  0.437500  0.187500    256.000000
 -0.187500  0.437500  0.187500    128.000000
 -0.437500 -0.437500  0.187500    128.000000
 -0.312500 -0.437500  0.187500    256.000000
 -0.187500 -0.437500  0.187500    128.000000
 -0.312500 -0.312500  0.187500    128.000000
 -0.187500 -0.312500  0.187500    128.000000
 -0.187500 -0.187500  0.187500     32.000000
 -0.312500  0.312500  0.312500     64.000000
 -0.437500  0.437500  0.312500    128.000000
 -0.312500  0.437500  0.312500    128.000000
 -0.437500 -0.437500  0.312500    128.000000
 -0.312500 -0.437500  0.312500    128.000000
 -0.312500 -0.312500  0.312500     32.000000
 -0.437500  0.437500  0.437500     64.000000
 -0.437500 -0.437500  0.437500     32.000000

 Following cartesian coordinates:
            Coordinates               Weight
  0.025510  0.025510  0.049058    128.000000
  0.025510  0.051020  0.098116    256.000000
  0.025510  0.076531  0.147174    256.000000
  0.025510  0.102041  0.196232    128.000000
  0.025510  0.000000  0.000000     64.000000
  0.051020  0.051020  0.147174    128.000000
  0.051020  0.076531  0.196232    256.000000
  0.051020  0.102041  0.245290    256.000000
  0.051020 -0.076531 -0.098116    256.000000
  0.051020 -0.051020 -0.049058    128.000000
  0.051020 -0.025510  0.000000    128.000000
  0.051020  0.000000  0.049058    128.000000
  0.076531  0.076531  0.245290    128.000000
  0.076531  0.102041  0.294349    256.000000
  0.076531 -0.076531 -0.049058    128.000000
  0.076531 -0.051020  0.000000    128.000000
  0.076531 -0.025510  0.049058    256.000000
  0.076531  0.000000  0.098116    128.000000
  0.102041  0.102041  0.343407     64.000000
  0.102041 -0.076531  0.000000    128.000000
  0.102041 -0.051020  0.049058    256.000000
  0.102041 -0.025510  0.098116    256.000000
  0.102041  0.000000  0.147174    128.000000
 -0.076531 -0.076531 -0.343407    128.000000
 -0.076531 -0.051020 -0.294349    256.000000
 -0.076531 -0.025510 -0.245290    256.000000
 -0.076531 -0.000000 -0.196232    128.000000
 -0.051020 -0.051020 -0.245290    128.000000
 -0.051020 -0.025510 -0.196232    256.000000
 -0.051020 -0.000000 -0.147174    128.000000
 -0.025510 -0.025510 -0.147174    128.000000
 -0.025510  0.000000 -0.098116    128.000000
 -0.000000  0.000000 -0.049058     32.000000
  0.076531  0.076531  0.147174    128.000000
  0.076531  0.102041  0.196232    128.000000
  0.076531  0.000000  0.000000     64.000000
  0.102041  0.102041  0.245290     64.000000
  0.102041 -0.025510 -0.000000    128.000000
  0.102041  0.000000  0.049058    128.000000
  0.127551 -0.051020  0.000000    128.000000
  0.127551 -0.025510  0.049058    256.000000
  0.127551  0.000000  0.098116    128.000000
 -0.051020 -0.051020 -0.343407    128.000000
 -0.051020 -0.025510 -0.294349    256.000000
 -0.051020  0.000000 -0.245290    128.000000
 -0.025510 -0.025510 -0.245290    128.000000
 -0.025510 -0.000000 -0.196232    128.000000
  0.000000  0.000000 -0.147174     32.000000
  0.127551  0.000000  0.000000     64.000000
  0.153061 -0.025510  0.000000    128.000000
  0.153061  0.000000  0.049058    128.000000
 -0.025510 -0.025510 -0.343407    128.000000
 -0.025510 -0.000000 -0.294349    128.000000
 -0.000000  0.000000 -0.245290     32.000000
  0.178571  0.000000  0.000000     64.000000
 -0.000000  0.000000 -0.343407     32.000000

 SYSTEM =  unknown system
 POSCAR =  Si2

 Startparameter for this run:
   NWRITE =      2    write-flag & timer
   PREC   = normal    normal or accurate (medium, high low for compatibility)
   ISTART =      0    job   : 0-new  1-cont  2-samecut
   ICHARG =      2    charge: 1-file 2-atom 10-const
   ISPIN  =      1    spin polarized calculation?
   LNONCOLLINEAR =      F non collinear calculations
   LSORBIT =      F    spin-orbit coupling
   INIWAV =      1    electr: 0-lowe 1-rand  2-diag
   LASPH  =      F    aspherical Exc in radial PAW
   METAGGA=      F    non-selfconsistent MetaGGA calc.

 Electronic Relaxation 1
   ENCUT  =  150.0 eV  11.02 Ry    3.32 a.u.   3.69  3.69  3.69*2*pi/ulx,y,z
   ENINI  =  150.0     initial cutoff
   ENAUG  =  322.1 eV  augmentation charge cutoff
   NELM   =     60;   NELMIN=  2; NELMDL= -5     # of ELM steps
   EDIFF  = 0.4E-03   stopping-criterion for ELM
   LREAL  =      F    real-space projection
   NLSPLINE    = F    spline interpolate recip. space projectors
   LCOMPAT=      F    compatible to vasp.4.4
   GGA_COMPAT  = T    GGA compatible to vasp.4.4-vasp.4.6
   LMAXPAW     = -100 max onsite density
   LMAXMIX     =    2 max onsite mixed and CHGCAR
   VOSKOWN=      0    Vosko Wilk Nusair interpolation
   ROPT   =    0.00000
 Ionic relaxation
   EDIFFG = -.1E-01   stopping-criterion for IOM
[...]
  -0.18750000 -0.43750000  0.18750000       0.016
  -0.31250000 -0.31250000  0.18750000       0.016
  -0.18750000 -0.31250000  0.18750000       0.016
  -0.18750000 -0.18750000  0.18750000       0.004
  -0.31250000  0.31250000  0.31250000       0.008
  -0.43750000  0.43750000  0.31250000       0.016
  -0.31250000  0.43750000  0.31250000       0.016
  -0.43750000 -0.43750000  0.31250000       0.016
  -0.31250000 -0.43750000  0.31250000       0.016
  -0.31250000 -0.31250000  0.31250000       0.004
  -0.43750000  0.43750000  0.43750000       0.008
  -0.43750000 -0.43750000  0.43750000       0.004

 position of ions in fractional coordinates (direct lattice)
   0.25000000  0.75000000  0.50000000
   0.00000000  0.00000000  0.00000000

 position of ions in cartesian coordinates  (Angst):
   2.45000000  0.00000000  0.63700000
   0.00000000  0.00000000  0.00000000

 k-point  1 :   0.0625 0.0625 0.0625  plane waves:     130
 k-point  2 :   0.1875 0.0625 0.0625  plane waves:     129
 k-point  3 :   0.3125 0.0625 0.0625  plane waves:     128
 k-point  4 :   0.4375 0.0625 0.0625  plane waves:     122
 k-point  5 :  -0.0625 0.0625 0.0625  plane waves:     127
 k-point  6 :   0.1875 0.1875 0.0625  plane waves:     128
 k-point  7 :   0.3125 0.1875 0.0625  plane waves:     126
 k-point  8 :   0.4375 0.1875 0.0625  plane waves:     128
 k-point  9 :  -0.4375 0.1875 0.0625  plane waves:     130
 k-point 10 :  -0.3125 0.1875 0.0625  plane waves:     128
 k-point 11 :  -0.1875 0.1875 0.0625  plane waves:     133
 k-point 12 :  -0.0625 0.1875 0.0625  plane waves:     133
 k-point 13 :   0.3125 0.3125 0.0625  plane waves:     128
 k-point 14 :   0.4375 0.3125 0.0625  plane waves:     129
 k-point 15 :  -0.4375 0.3125 0.0625  plane waves:     127
 k-point 16 :  -0.3125 0.3125 0.0625  plane waves:     131
 k-point 17 :  -0.1875 0.3125 0.0625  plane waves:     130
 k-point 18 :  -0.0625 0.3125 0.0625  plane waves:     131
 k-point 19 :   0.4375 0.4375 0.0625  plane waves:     130
 k-point 20 :  -0.4375 0.4375 0.0625  plane waves:     133
 k-point 21 :  -0.3125 0.4375 0.0625  plane waves:     129
 k-point 22 :  -0.1875 0.4375 0.0625  plane waves:     129
 k-point 23 :  -0.0625 0.4375 0.0625  plane waves:     128
 k-point 24 :  -0.4375-0.4375 0.0625  plane waves:     126
 k-point 25 :  -0.3125-0.4375 0.0625  plane waves:     124
 k-point 26 :  -0.1875-0.4375 0.0625  plane waves:     123
 k-point 27 :  -0.0625-0.4375 0.0625  plane waves:     124
 k-point 28 :  -0.3125-0.3125 0.0625  plane waves:     121
 k-point 29 :  -0.1875-0.3125 0.0625  plane waves:     125
 k-point 30 :  -0.0625-0.3125 0.0625  plane waves:     125
 k-point 31 :  -0.1875-0.1875 0.0625  plane waves:     123
 k-point 32 :  -0.0625-0.1875 0.0625  plane waves:     131
 k-point 33 :  -0.0625-0.0625 0.0625  plane waves:     131
 k-point 34 :   0.1875 0.1875 0.1875  plane waves:     131
 k-point 35 :   0.3125 0.1875 0.1875  plane waves:     130
 k-point 36 :  -0.1875 0.1875 0.1875  plane waves:     129
 k-point 37 :   0.3125 0.3125 0.1875  plane waves:     126
 k-point 38 :  -0.3125 0.3125 0.1875  plane waves:     126
 k-point 39 :  -0.1875 0.3125 0.1875  plane waves:     126
 k-point 40 :  -0.4375 0.4375 0.1875  plane waves:     129
 k-point 41 :  -0.3125 0.4375 0.1875  plane waves:     129
 k-point 42 :  -0.1875 0.4375 0.1875  plane waves:     128
 k-point 43 :  -0.4375-0.4375 0.1875  plane waves:     130
 k-point 44 :  -0.3125-0.4375 0.1875  plane waves:     127
 k-point 45 :  -0.1875-0.4375 0.1875  plane waves:     124
 k-point 46 :  -0.3125-0.3125 0.1875  plane waves:     121
 k-point 47 :  -0.1875-0.3125 0.1875  plane waves:     117
 k-point 48 :  -0.1875-0.1875 0.1875  plane waves:     119
 k-point 49 :  -0.3125 0.3125 0.3125  plane waves:     129
 k-point 50 :  -0.4375 0.4375 0.3125  plane waves:     131
 k-point 51 :  -0.3125 0.4375 0.3125  plane waves:     131
 k-point 52 :  -0.4375-0.4375 0.3125  plane waves:     129
 k-point 53 :  -0.3125-0.4375 0.3125  plane waves:     124
 k-point 54 :  -0.3125-0.3125 0.3125  plane waves:     122
 k-point 55 :  -0.4375 0.4375 0.4375  plane waves:     129
 k-point 56 :  -0.4375-0.4375 0.4375  plane waves:     126

 maximum and minimum number of plane-waves per node :       133      117

 maximum number of plane-waves:       133
 maximum index in each direction:
   IXMAX=    4   IYMAX=    4   IZMAX=    3
   IXMIN=   -4   IYMIN=   -4   IZMIN=   -4

 serial   3D FFT for wavefunctions
 parallel 3D FFT for charge:
    minimum data exchange during FFTs selected (reduces bandwidth)

 Broyden mixing: mesh for mixing (old mesh)
   NGX =  7   NGY =  7   NGZ =  7
  (NGX  = 24   NGY  = 24   NGZ  = 24)
  gives a total of    343 points

 initial charge density was supplied:
 charge density of overlapping atoms calculated
 number of electron       8.0000000 magnetization
 keeping initial charge density in first step

 Maximum index for augmentation-charges          241 (set IRDMAX)

 First call to EWALD:  gamma=   0.567
 Maximum number of real-space cells 4x 4x 3
 Maximum number of reciprocal cells 3x 3x 3

--------------------------------------- Iteration      1(   1)  ---------------------------------------

 eigenvalue-minimisations  :   920
 total energy-change (2. order) :-0.4623658E+01  (-0.1760640E+03)
 number of electron       8.0000000 magnetization
 augmentation part        8.0000000 magnetization

 Free energy of the ion-electron system (eV)
  alpha Z        PSCENC =         4.40202223
  Ewald energy   TEWEN  =      -265.18101312
  -Hartree energ DENC   =        -2.30415367
  -exchange      EXHF   =         0.00000000
  -V(xc)+E(xc)   XCENC  =       -17.81530915
  PAW double counting   =        65.95520812      -30.76852678
  entropy T*S    EENTRO =        -0.01880474
  eigenvalues    EBANDS =        35.01508273
  atomic energy  EATOM  =       206.09183643
  Solvation  Ediel_sol  =         0.00000000
  free energy    TOTEN  =        -4.62365796 eV

  energy without entropy =       -4.60485321  energy(sigma->0) =       -4.61425558

[...]

 Broyden mixing:
  rms(total) = 0.14852E+00    rms(broyden)= 0.14841E+00
  rms(prec ) = 0.33427E+00
  weight for this iteration     100.00

[...]

 eigenvalue-minimisations  :  1056
 total energy-change (2. order) : 0.8804907E-02  (-0.1868409E-03)
 number of electron       8.0000045 magnetization
 augmentation part       -0.4667523 magnetization

[...]

 eigenvalues of (default mixing * dielectric matrix)
  average eigenvalue GAMMA=   2.6599
  2.6599

[...]

 average (electrostatic) potential at core
  the test charge radii are     0.9892
  (the norm of the test charge is              1.0000)
       1 -80.5657       2 -80.5657

 E-fermi :   9.1088     XC(G=0): -10.8950     alpha+bet :-15.6819

 k-point     1 :       0.0625    0.0625    0.0625
  band No.  band energies     occupation
      1      -4.0829      2.00000
      2       4.4072      2.00000
      3       6.7798      2.00000
      4       8.1024      2.00000
      5      12.1045      0.00000
      6      14.6194      0.00000
      7      15.4337      0.00000
      8      16.5994      0.00000

[...]

 soft charge-density along one line, spin component           1
         0         1         2         3         4         5         6         7         8         9
 total charge-density along one line

------------------------ aborting loop because EDIFF is reached ----------------------------------------

  FORCE on cell =-STRESS in cart. coord.  units (eV):
  Direction    XX          YY          ZZ          XY          YZ          ZX
  Alpha Z     4.40202     4.40202     4.40202
  Ewald     -90.96023   -90.96023   -83.26083    -0.00000     0.00000     0.00000
  Hartree     0.55221     0.55221     1.39297     0.00000    -0.00000    -0.00000
  E(xc)     -25.42231   -25.42231   -25.38329     0.00012     0.00006     0.00006
  Local     -11.23394   -11.23394   -17.72206    -0.00004    -0.00012    -0.00012
  n-local    77.30314    77.33114    77.00114     0.99089    -0.49299    -0.45931
  augment   -11.97834   -11.97834   -11.91959     0.00008     0.00008     0.00008
  Kinetic    56.65275    56.94079    56.93316     3.19846    -2.05559    -2.75490
  Fock        0.00000     0.00000     0.00000     0.00000     0.00000     0.00000
  Total      -0.52667    -0.52667     1.44353    -0.00000     0.00000     0.00000
  in kB     -27.58590   -27.58590    75.60928    -0.00000     0.00000     0.00000

 VOLUME and BASIS-vectors are now :
  energy-cutoff  :      150.00
  volume of cell :       30.59
      direct lattice vectors                 reciprocal lattice vectors
    -2.450000000  2.450000000  1.274000000     0.000000000  0.204081633  0.392464678
     2.450000000 -2.450000000  1.274000000     0.204081633  0.000000000  0.392464678
     2.450000000  2.450000000 -1.274000000     0.204081633  0.204081633 -0.000000000

[...]

 FORCES acting on ions
    electron-ion (+dipol)            ewald-force                    non-local-force                 convergence-correction
   -.269E-04 0.269E-04 -.520E-14   0.198E-14 0.156E-15 0.342E-17   0.143E-16 -.690E-16 0.182E-16   -.340E-06 0.340E-06 -.276E-15
   0.269E-04 -.269E-04 -.101E-14   -.185E-14 0.943E-16 0.891E-15   -.681E-17 0.626E-16 -.101E-16   0.340E-06 -.340E-06 0.133E-16
   -.884E-14 0.170E-15 -.621E-14   0.139E-15 0.250E-15 0.894E-15   0.746E-17 -.642E-17 0.806E-17   0.443E-16 -.769E-16 -.263E-15

 POSITION                                       TOTAL-FORCE (eV/Angst)
      2.45000      0.00000      0.63700        -0.000000     -0.000000     -0.000000
      0.00000      0.00000      0.00000         0.000000      0.000000      0.000000
    total drift:                               -0.000000      0.000000     -0.000000

  FREE ENERGIE OF THE ION-ELECTRON SYSTEM (eV)
  free  energy   TOTEN  =       -10.07865200 eV

  energy  without entropy=      -10.05694941  energy(sigma->0) =      -10.06780070

[...]

 d Force = 0.0000000E+00[ 0.000E+00, 0.000E+00]  d Energy = 0.5035972E-01-0.504E-01
 d Force = 0.0000000E+00[ 0.000E+00, 0.000E+00]  d Ewald  =-0.6477155E+00 0.648E+00

 Steepest descent step on ions:
 trial-energy change:   -0.050360  1 .order   -0.049343   -0.063645   -0.035040
  (g-gl).g = 0.636E-01      g.g   = 0.636E-01  gl.gl    = 0.000E+00
 g(Force)  = 0.698E-43   g(Stress)= 0.636E-01 ortho     = 0.000E+00
 gamma     =   0.00000
 trial     =   1.00000
 opt step  =   2.22499  (harmonic =   2.22499) maximal distance =0.00000000
 next E    =   -10.149457   (d E  =  -0.07080)

[...]

 eigenvalues of (default mixing * dielectric matrix)
  average eigenvalue GAMMA=   1.3479
  2.2628  0.4331

[...]

 d Force = 0.0000000E+00[ 0.000E+00, 0.000E+00]  d Energy = 0.5177829E-02-0.518E-02
 d Force = 0.0000000E+00[ 0.000E+00, 0.000E+00]  d Ewald  = 0.3856966E+00-0.386E+00

[...]

 d Force = 0.0000000E+00[ 0.000E+00, 0.000E+00]  d Energy =-0.8173028E-06 0.817E-06
 d Force = 0.0000000E+00[ 0.000E+00, 0.000E+00]  d Ewald  = 0.2490212E-02-0.249E-02

[...]

 d Force = 0.0000000E+00[ 0.000E+00, 0.000E+00]  d Energy =-0.4005057E-06 0.401E-06
 d Force = 0.0000000E+00[ 0.000E+00, 0.000E+00]  d Ewald  = 0.2012895E-02-0.201E-02

[...]

 d Force = 0.0000000E+00[ 0.000E+00, 0.000E+00]  d Energy = 0.2312492E-03-0.231E-03
 d Force = 0.0000000E+00[ 0.000E+00, 0.000E+00]  d Ewald  = 0.7609351E+00-0.761E+00

 Conjugate gradient step on ions:
 trial-energy change:   -0.000231  1 .order   -0.000352   -0.000955    0.000252
  (g-gl).g = 0.981E-03      g.g   = 0.835E-03  gl.gl    = 0.636E-01
 g(Force)  = 0.178E-43   g(Stress)= 0.835E-03 ortho     =-0.146E-03
 gamma     =   0.01541
 trial     =   1.14712
 opt step  =   0.90756  (harmonic =   0.90756) maximal distance =0.00000000
 next E    =   -10.142875   (d E  =  -0.00038)

[...]

 eigenvalue-minimisations  :  1032
 total energy-change (2. order) :-0.4870354E-04  (-0.9562624E-04)
 number of electron       7.9999985 magnetization
 augmentation part       -0.4694047 magnetization

 Broyden mixing:
  rms(total) = 0.21426E-02    rms(broyden)= 0.21151E-02
  rms(prec ) = 0.62949E-02
  weight for this iteration     100.00

[...]

--------------------------------------- Iteration     11(   2)  ---------------------------------------

 eigenvalue-minimisations  :   448
 total energy-change (2. order) : 0.1409891E-04  (-0.8603550E-06)
 number of electron       7.9999985 magnetization
 augmentation part       -0.4694047 magnetization

 Free energy of the ion-electron system (eV)
  alpha Z        PSCENC =         4.36053801
  Ewald energy   TEWEN  =      -264.39593444
  -Hartree energ DENC   =        -2.52884098
  -exchange      EXHF   =         0.00000000
  -V(xc)+E(xc)   XCENC  =       -17.58522350
  PAW double counting   =        72.38428527      -37.31110380
  entropy T*S    EENTRO =        -0.01840415
  eigenvalues    EBANDS =        28.86006428
  atomic energy  EATOM  =       206.09183643
  Solvation  Ediel_sol  =         0.00000000
  free energy    TOTEN  =       -10.14278287 eV

  energy without entropy =      -10.12437872  energy(sigma->0) =      -10.13358080

 average (electrostatic) potential at core
  the test charge radii are     0.9892
  (the norm of the test charge is              1.0000)
       1 -80.6808       2 -80.6808

 E-fermi :   9.0021     XC(G=0): -10.8569     alpha+bet :-15.5341

[...]

 k-point    56 :      -0.4375   -0.4375    0.4375
  band No.  band energies     occupation
      1       1.1576      2.00000
      2       1.2033      2.00000
      3       2.6360      2.00000
      4       2.6360      2.00000
      5      10.2002      0.00000
      6      18.2373      0.00000
      7      20.7929      0.00000
      8      20.7929      0.00000

 soft charge-density along one line, spin component           1
         0         1         2         3         4         5         6         7         8         9
 total charge-density along one line

------------------------ aborting loop because EDIFF is reached ----------------------------------------

  FORCE on cell =-STRESS in cart. coord.  units (eV):
  Direction    XX          YY          ZZ          XY          YZ          ZX
  Alpha Z     4.36054     4.36054     4.36054
  Ewald     -86.30869   -86.30869   -91.77877     0.00000    -0.00000     0.00000
  Hartree     0.89591     0.89591     0.74537     0.00000    -0.00000    -0.00000
  E(xc)     -25.41601   -25.41601   -25.25445     0.00008     0.00004     0.00004
  Local     -16.04104   -16.04104    -8.64010    -0.00005    -0.00012    -0.00012
  n-local    78.17298    78.25576    75.21853     1.28682    -0.49216    -0.66383
  augment   -12.03252   -12.03252   -11.79407     0.00007     0.00007     0.00007
  Kinetic    54.40510    58.27092    57.13343     2.68390    -1.61163    -1.57892
  Fock        0.00000     0.00000     0.00000     0.00000     0.00000     0.00000
  Total       0.01057     0.01057    -0.00951     0.00000    -0.00000     0.00000
  in kB       0.54833     0.54833    -0.49350     0.00000    -0.00000     0.00000

 VOLUME and BASIS-vectors are now :
  energy-cutoff  :      150.00
  volume of cell :       30.88
      direct lattice vectors                 reciprocal lattice vectors
    -2.391621090  2.391621090  1.349674377    -0.000000000  0.209063217  0.370459726
     2.391621090 -2.391621090  1.349674377     0.209063217 -0.000000000  0.370459726
     2.391621090  2.391621090 -1.349674377     0.209063217  0.209063217  0.000000000

  length of vectors
     3.641610056  3.641610056  3.641610056     0.425379639  0.425379639  0.295660037

 FORCES acting on ions
    electron-ion (+dipol)            ewald-force                    non-local-force                 convergence-correction
   -.181E-04 0.181E-04 -.193E-14   -.872E-15 -.281E-14 0.507E-14   -.325E-17 -.449E-16 -.382E-17   0.487E-06 -.487E-06 -.121E-15
   0.181E-04 -.181E-04 -.387E-14   0.721E-15 0.244E-14 -.457E-14   0.223E-16 0.570E-16 -.533E-17   -.487E-06 0.487E-06 0.228E-15
   -.928E-14 0.444E-15 -.579E-14   -.151E-15 -.374E-15 0.505E-15   0.191E-16 0.121E-16 -.915E-17   -.164E-15 0.707E-16 0.107E-15

 POSITION                                       TOTAL-FORCE (eV/Angst)
      2.39162      0.00000      0.67484         0.000000     -0.000000     -0.000000
      0.00000      0.00000      0.00000        -0.000000      0.000000      0.000000
    total drift:                               -0.000000      0.000000     -0.000000

  FREE ENERGIE OF THE ION-ELECTRON SYSTEM (eV)
  free  energy   TOTEN  =       -10.14278287 eV

  energy  without entropy=      -10.12437872  energy(sigma->0) =      -10.13358080

 d Force = 0.0000000E+00[ 0.000E+00, 0.000E+00]  d Energy = 0.4213459E-04-0.421E-04
 d Force = 0.0000000E+00[ 0.000E+00, 0.000E+00]  d Ewald  =-0.1980703E+00 0.198E+00

 reached required accuracy - stopping structural energy minimisation
 writing wavefunctions