 vasp.5.4.4.18Apr17-6-g9f103f2a35 (build Dec 09 2018 21:25:21) complex

 executed on IFC18.0.1.163_CrayMP date 2019.03.23  21:08:20

 INCAR:
 POTCAR:   PAW_PBE Si 05Jan2001

 POTCAR:   PAW_PBE Si 05Jan2001
   VRHFIN =Si: s2p2

   TITEL  = PAW_PBE Si 05Jan2001
   POMASS =   28.085; ZVAL   =    4.000    mass and valenz
   ENMAX  =  245.345; ENMIN  =  184.009 eV
   QCUT   =   -4.246; QGAM   =    8.493    optimization parameters

   Description
     l     E      TYP  RCUT    TYP  RCUT
     0   .000     23  1.900
     0   .000     23  1.900
     1   .000     23  1.900
     1   .000     23  1.900
     2   .000      7  1.900

 PAW_PBE Si 05Jan2001                   :

 POSCAR: Si2
  positions in direct lattice
 exchange correlation table for  LEXCH =        8
   RHO(1)=    0.500       N(1)  =     2000
   RHO(2)=  100.500       N(2)  =     4000

 ion  position               nearest neighbor table
   1  0.750  0.250  0.500-   2 2.52   2 2.52   2 2.52   2 2.52   2 3.15   2 3.15   2 3.15   2 3.15

   2  0.500  0.500  0.000-   1 2.52   1 2.52   1 2.52   1 2.52   1 3.15   1 3.15   1 3.15   1 3.15

  LATTYP: Found a body centered tetragonal cell.
 ALAT       =     4.8543860000
 C/A-ratio  =     0.5507687275

  Lattice vectors:

 A1 = (  -2.4271930000,   2.4271930000,   1.3368220000)
 A2 = (   2.4271930000,  -2.4271930000,   1.3368220000)
 A3 = (   2.4271930000,   2.4271930000,  -1.3368220000)

Analysis of symmetry for initial positions (statically):
 Subroutine PRICEL returns:
 Original cell was already a primitive cell.

 Routine SETGRP: Setting up the symmetry group for a
 body centered tetragonal supercell.

 Subroutine GETGRP returns: Found 16 space group operations
 (whereof  8 operations were pure point group operations)
 out of a pool of 16 trial point group operations.

The static configuration has the point symmetry D_2d.
 The point group associated with its full space group is D_4h.

Analysis of symmetry for dynamics (positions and initial velocities):
 Subroutine PRICEL returns:
 Original cell was already a primitive cell.

 Routine SETGRP: Setting up the symmetry group for a
 body centered tetragonal supercell.

 Subroutine GETGRP returns: Found 16 space group operations
 (whereof  8 operations were pure point group operations)
 out of a pool of 16 trial point group operations.

The dynamic configuration has the point symmetry D_2d.
 The point group associated with its full space group is D_4h.

 Subroutine INISYM returns: Found 16 space group operations
 (whereof  8 operations are pure point group operations),
 and found     1 'primitive' translations

 KPOINTS: Automatic kpoint scheme

Automatic generation of k-mesh.
Space group operators:
 irot       det(A)        alpha          n_x          n_y          n_z        tau_x        tau_y        tau_z
    1     1.000000     0.000000     1.000000     0.000000     0.000000     0.000000     0.000000     0.000000
    2    -1.000000    90.000000     0.000000     0.000000    -1.000000     0.000000     0.000000     0.000000
    3     1.000000   180.000000    -0.000000     0.000000    -1.000000     0.000000     0.000000     0.000000
    4    -1.000000    90.000000     0.000000     0.000000     1.000000     0.000000     0.000000     0.000000
    5    -1.000000   180.000000    -0.000000    -1.000000    -0.000000     0.000000     0.000000     0.000000
    6     1.000000   180.000000     0.707107     0.707107     0.000000     0.000000     0.000000     0.000000
    7    -1.000000   180.000000     1.000000     0.000000     0.000000     0.000000     0.000000     0.000000
    8     1.000000   180.000000     0.707107    -0.707107    -0.000000     0.000000     0.000000     0.000000
    9    -1.000000     0.000000     1.000000     0.000000     0.000000     0.250000     0.750000     0.500000
   10     1.000000    90.000000     0.000000     0.000000    -1.000000     0.250000     0.750000     0.500000
   11    -1.000000   180.000000    -0.000000     0.000000    -1.000000     0.250000     0.750000     0.500000
   12     1.000000    90.000000     0.000000     0.000000     1.000000     0.250000     0.750000     0.500000
   13     1.000000   180.000000    -0.000000    -1.000000    -0.000000     0.250000     0.750000     0.500000
   14    -1.000000   180.000000     0.707107     0.707107     0.000000     0.250000     0.750000     0.500000
   15     1.000000   180.000000     1.000000     0.000000     0.000000     0.250000     0.750000     0.500000
   16    -1.000000   180.000000     0.707107    -0.707107    -0.000000     0.250000     0.750000     0.500000

 Subroutine IBZKPT returns following result:

 Found     56 irreducible k-points:

 Following reciprocal coordinates:
            Coordinates               Weight
  0.062500  0.062500  0.062500    128.000000
  0.187500  0.062500  0.062500    256.000000
  0.312500  0.062500  0.062500    256.000000
  0.437500  0.062500  0.062500    128.000000
 -0.062500  0.062500  0.062500     64.000000
  0.187500  0.187500  0.062500    128.000000
  0.312500  0.187500  0.062500    256.000000
  0.437500  0.187500  0.062500    256.000000
 -0.437500  0.187500  0.062500    256.000000
 -0.312500  0.187500  0.062500    128.000000
 -0.187500  0.187500  0.062500    128.000000
 -0.062500  0.187500  0.062500    128.000000
  0.312500  0.312500  0.062500    128.000000
  0.437500  0.312500  0.062500    256.000000
 -0.437500  0.312500  0.062500    128.000000
 -0.312500  0.312500  0.062500    128.000000
 -0.187500  0.312500  0.062500    256.000000
 -0.062500  0.312500  0.062500    128.000000
  0.437500  0.437500  0.062500     64.000000
 -0.437500  0.437500  0.062500    128.000000
 -0.312500  0.437500  0.062500    256.000000
 -0.187500  0.437500  0.062500    256.000000
 -0.062500  0.437500  0.062500    128.000000
 -0.437500 -0.437500  0.062500    128.000000
 -0.312500 -0.437500  0.062500    256.000000
 -0.187500 -0.437500  0.062500    256.000000
 -0.062500 -0.437500  0.062500    128.000000
 -0.312500 -0.312500  0.062500    128.000000
 -0.187500 -0.312500  0.062500    256.000000
 -0.062500 -0.312500  0.062500    128.000000
 -0.187500 -0.187500  0.062500    128.000000
 -0.062500 -0.187500  0.062500    128.000000
 -0.062500 -0.062500  0.062500     32.000000
  0.187500  0.187500  0.187500    128.000000
  0.312500  0.187500  0.187500    128.000000
 -0.187500  0.187500  0.187500     64.000000
  0.312500  0.312500  0.187500     64.000000
 -0.312500  0.312500  0.187500    128.000000
 -0.187500  0.312500  0.187500    128.000000
 -0.437500  0.437500  0.187500    128.000000
 -0.312500  0.437500  0.187500    256.000000
 -0.187500  0.437500  0.187500    128.000000
 -0.437500 -0.437500  0.187500    128.000000
 -0.312500 -0.437500  0.187500    256.000000
 -0.187500 -0.437500  0.187500    128.000000
 -0.312500 -0.312500  0.187500    128.000000
 -0.187500 -0.312500  0.187500    128.000000
 -0.187500 -0.187500  0.187500     32.000000
 -0.312500  0.312500  0.312500     64.000000
 -0.437500  0.437500  0.312500    128.000000
 -0.312500  0.437500  0.312500    128.000000
 -0.437500 -0.437500  0.312500    128.000000
 -0.312500 -0.437500  0.312500    128.000000
 -0.312500 -0.312500  0.312500     32.000000
 -0.437500  0.437500  0.437500     64.000000
 -0.437500 -0.437500  0.437500     32.000000

 Following cartesian coordinates:
            Coordinates               Weight
  0.025750  0.025750  0.046753    128.000000
  0.025750  0.051500  0.093505    256.000000
  0.025750  0.077250  0.140258    256.000000
  0.025750  0.103000  0.187011    128.000000
  0.025750  0.000000  0.000000     64.000000
  0.051500  0.051500  0.140258    128.000000
  0.051500  0.077250  0.187011    256.000000
  0.051500  0.103000  0.233763    256.000000
  0.051500 -0.077250 -0.093505    256.000000
  0.051500 -0.051500 -0.046753    128.000000
  0.051500 -0.025750  0.000000    128.000000
  0.051500 -0.000000  0.046753    128.000000
  0.077250  0.077250  0.233763    128.000000
  0.077250  0.103000  0.280516    256.000000
  0.077250 -0.077250 -0.046753    128.000000
  0.077250 -0.051500  0.000000    128.000000
  0.077250 -0.025750  0.046753    256.000000
  0.077250 -0.000000  0.093505    128.000000
  0.103000  0.103000  0.327269     64.000000
  0.103000 -0.077250  0.000000    128.000000
  0.103000 -0.051500  0.046753    256.000000
  0.103000 -0.025750  0.093505    256.000000
  0.103000 -0.000000  0.140258    128.000000
 -0.077250 -0.077250 -0.327269    128.000000
 -0.077250 -0.051500 -0.280516    256.000000
 -0.077250 -0.025750 -0.233763    256.000000
 -0.077250  0.000000 -0.187011    128.000000
 -0.051500 -0.051500 -0.233763    128.000000
 -0.051500 -0.025750 -0.187011    256.000000
 -0.051500  0.000000 -0.140258    128.000000
 -0.025750 -0.025750 -0.140258    128.000000
 -0.025750  0.000000 -0.093505    128.000000
 -0.000000  0.000000 -0.046753     32.000000
  0.077250  0.077250  0.140258    128.000000
  0.077250  0.103000  0.187011    128.000000
  0.077250  0.000000  0.000000     64.000000
  0.103000  0.103000  0.233763     64.000000
  0.103000 -0.025750  0.000000    128.000000
  0.103000  0.000000  0.046753    128.000000
  0.128750 -0.051500  0.000000    128.000000
  0.128750 -0.025750  0.046753    256.000000
  0.128750  0.000000  0.093505    128.000000
 -0.051500 -0.051500 -0.327269    128.000000
 -0.051500 -0.025750 -0.280516    256.000000
 -0.051500  0.000000 -0.233763    128.000000
 -0.025750 -0.025750 -0.233763    128.000000
 -0.025750  0.000000 -0.187011    128.000000
 -0.000000  0.000000 -0.140258     32.000000
  0.128750  0.000000  0.000000     64.000000
  0.154499 -0.025750  0.000000    128.000000
  0.154499  0.000000  0.046753    128.000000
 -0.025750 -0.025750 -0.327269    128.000000
 -0.025750  0.000000 -0.280516    128.000000
 -0.000000  0.000000 -0.233763     32.000000
  0.180249  0.000000  0.000000     64.000000
  0.000000  0.000000 -0.327269     32.000000

 SYSTEM =  unknown system
 POSCAR =  Si2

 Startparameter for this run:
   NWRITE =      2    write-flag & timer
   PREC   = normal    normal or accurate (medium, high low for compatibility)
   ISTART =      0    job   : 0-new  1-cont  2-samecut
   ICHARG =      2    charge: 1-file 2-atom 10-const
   ISPIN  =      1    spin polarized calculation?
   LNONCOLLINEAR =      F non collinear calculations
   LSORBIT =      F    spin-orbit coupling
   INIWAV =      1    electr: 0-lowe 1-rand  2-diag
   LASPH  =      F    aspherical Exc in radial PAW
   METAGGA=      F    non-selfconsistent MetaGGA calc.

 Electronic Relaxation 1
   ENCUT  =  350.0 eV  25.72 Ry    5.07 a.u.   5.62  5.62  5.62*2*pi/ulx,y,z
   ENINI  =  350.0     initial cutoff
   ENAUG  =  322.1 eV  augmentation charge cutoff
   NELM   =     60;   NELMIN=  2; NELMDL= -5     # of ELM steps
   EDIFF  = 0.4E-03   stopping-criterion for ELM
   LREAL  =      F    real-space projection
   NLSPLINE    = F    spline interpolate recip. space projectors
   LCOMPAT=      F    compatible to vasp.4.4
   GGA_COMPAT  = T    GGA compatible to vasp.4.4-vasp.4.6
   LMAXPAW     = -100 max onsite density
   LMAXMIX     =    2 max onsite mixed and CHGCAR
   VOSKOWN=      0    Vosko Wilk Nusair interpolation
   ROPT   =    0.00000
 Ionic relaxation
   EDIFFG = -.1E-01   stopping-criterion for IOM
[...]
   0.02574991  0.10299964  0.18701069       0.016
   0.02574991  0.00000000 -0.00000000       0.008
   0.05149982  0.05149982  0.14025801       0.016
   0.05149982  0.07724973  0.18701069       0.031
   0.05149982  0.10299964  0.23376336       0.031
   0.05149982 -0.07724973 -0.09350534       0.031
   0.05149982 -0.05149982 -0.04675267       0.016
   0.05149982 -0.02574991 -0.00000000       0.016
   0.05149982 -0.00000000  0.04675267       0.016
   0.07724973  0.07724973  0.23376336       0.016
   0.07724973  0.10299964  0.28051603       0.031
   0.07724973 -0.07724973 -0.04675267       0.016
   0.07724973 -0.05149982 -0.00000000       0.016
   0.07724973 -0.02574991  0.04675267       0.031
   0.07724973 -0.00000000  0.09350534       0.016
   0.10299964  0.10299964  0.32726870       0.008
   0.10299964 -0.07724973 -0.00000000       0.016
   0.10299964 -0.05149982  0.04675267       0.031
   0.10299964 -0.02574991  0.09350534       0.031
   0.10299964 -0.00000000  0.14025801       0.016
  -0.07724973 -0.07724973 -0.32726870       0.016
  -0.07724973 -0.05149982 -0.28051603       0.031
  -0.07724973 -0.02574991 -0.23376336       0.031
  -0.07724973  0.00000000 -0.18701069       0.016
  -0.05149982 -0.05149982 -0.23376336       0.016
  -0.05149982 -0.02574991 -0.18701069       0.031
  -0.05149982  0.00000000 -0.14025801       0.016
  -0.02574991 -0.02574991 -0.14025801       0.016
  -0.02574991  0.00000000 -0.09350534       0.016
   0.00000000  0.00000000 -0.04675267       0.004
   0.07724973  0.07724973  0.14025801       0.016
   0.07724973  0.10299964  0.18701069       0.016
   0.07724973  0.00000000 -0.00000000       0.008
   0.10299964  0.10299964  0.23376336       0.008
   0.10299964 -0.02574991 -0.00000000       0.016
   0.10299964  0.00000000  0.04675267       0.016
   0.12874955 -0.05149982  0.00000000       0.016
   0.12874955 -0.02574991  0.04675267       0.031
   0.12874955  0.00000000  0.09350534       0.016
  -0.05149982 -0.05149982 -0.32726870       0.016
  -0.05149982 -0.02574991 -0.28051603       0.031
  -0.05149982  0.00000000 -0.23376336       0.016
  -0.02574991 -0.02574991 -0.23376336       0.016
  -0.02574991  0.00000000 -0.18701069       0.016
   0.00000000  0.00000000 -0.14025801       0.004
   0.12874955  0.00000000 -0.00000000       0.008
   0.15449946 -0.02574991  0.00000000       0.016
   0.15449946 -0.00000000  0.04675267       0.016
  -0.02574991 -0.02574991 -0.32726870       0.016
  -0.02574991  0.00000000 -0.28051603       0.016
  -0.00000000  0.00000000 -0.23376336       0.004
   0.18024937 -0.00000000 -0.00000000       0.008
  -0.00000000  0.00000000 -0.32726870       0.004

 k-points in reciprocal lattice and weights: Automatic kpoint scheme
   0.06250000  0.06250000  0.06250000       0.016
   0.18750000  0.06250000  0.06250000       0.031
   0.31250000  0.06250000  0.06250000       0.031
   0.43750000  0.06250000  0.06250000       0.016
  -0.06250000  0.06250000  0.06250000       0.008
   0.18750000  0.18750000  0.06250000       0.016
   0.31250000  0.18750000  0.06250000       0.031
   0.43750000  0.18750000  0.06250000       0.031
  -0.43750000  0.18750000  0.06250000       0.031
  -0.31250000  0.18750000  0.06250000       0.016
  -0.18750000  0.18750000  0.06250000       0.016
  -0.06250000  0.18750000  0.06250000       0.016
   0.31250000  0.31250000  0.06250000       0.016
   0.43750000  0.31250000  0.06250000       0.031
  -0.43750000  0.31250000  0.06250000       0.016
  -0.31250000  0.31250000  0.06250000       0.016
  -0.18750000  0.31250000  0.06250000       0.031
  -0.06250000  0.31250000  0.06250000       0.016
   0.43750000  0.43750000  0.06250000       0.008
  -0.43750000  0.43750000  0.06250000       0.016
  -0.31250000  0.43750000  0.06250000       0.031
  -0.18750000  0.43750000  0.06250000       0.031
  -0.06250000  0.43750000  0.06250000       0.016
  -0.43750000 -0.43750000  0.06250000       0.016
  -0.31250000 -0.43750000  0.06250000       0.031
  -0.18750000 -0.43750000  0.06250000       0.031
  -0.06250000 -0.43750000  0.06250000       0.016
  -0.31250000 -0.31250000  0.06250000       0.016
  -0.18750000 -0.31250000  0.06250000       0.031
  -0.06250000 -0.31250000  0.06250000       0.016
  -0.18750000 -0.18750000  0.06250000       0.016
  -0.06250000 -0.18750000  0.06250000       0.016
  -0.06250000 -0.06250000  0.06250000       0.004
   0.18750000  0.18750000  0.18750000       0.016
   0.31250000  0.18750000  0.18750000       0.016
  -0.18750000  0.18750000  0.18750000       0.008
   0.31250000  0.31250000  0.18750000       0.008
  -0.31250000  0.31250000  0.18750000       0.016
  -0.18750000  0.31250000  0.18750000       0.016
  -0.43750000  0.43750000  0.18750000       0.016
  -0.31250000  0.43750000  0.18750000       0.031
  -0.18750000  0.43750000  0.18750000       0.016
  -0.43750000 -0.43750000  0.18750000       0.016
  -0.31250000 -0.43750000  0.18750000       0.031
  -0.18750000 -0.43750000  0.18750000       0.016
  -0.31250000 -0.31250000  0.18750000       0.016
  -0.18750000 -0.31250000  0.18750000       0.016
  -0.18750000 -0.18750000  0.18750000       0.004
  -0.31250000  0.31250000  0.31250000       0.008
  -0.43750000  0.43750000  0.31250000       0.016
  -0.31250000  0.43750000  0.31250000       0.016
  -0.43750000 -0.43750000  0.31250000       0.016
  -0.31250000 -0.43750000  0.31250000       0.016
  -0.31250000 -0.31250000  0.31250000       0.004
  -0.43750000  0.43750000  0.43750000       0.008
  -0.43750000 -0.43750000  0.43750000       0.004

 position of ions in fractional coordinates (direct lattice)
   0.75000000  0.25000000  0.50000000
   0.50000000  0.50000000  0.00000000

 position of ions in cartesian coordinates  (Angst):
   0.00000000  2.42719300  0.66841100
   0.00000000  0.00000000  1.33682200

 k-point  1 :   0.0625 0.0625 0.0625  plane waves:     472
 k-point  2 :   0.1875 0.0625 0.0625  plane waves:     476
 k-point  3 :   0.3125 0.0625 0.0625  plane waves:     473
 k-point  4 :   0.4375 0.0625 0.0625  plane waves:     470
 k-point  5 :  -0.0625 0.0625 0.0625  plane waves:     475
 k-point  6 :   0.1875 0.1875 0.0625  plane waves:     476
 k-point  7 :   0.3125 0.1875 0.0625  plane waves:     472
 k-point  8 :   0.4375 0.1875 0.0625  plane waves:     476
 k-point  9 :  -0.4375 0.1875 0.0625  plane waves:     471
 k-point 10 :  -0.3125 0.1875 0.0625  plane waves:     471
 k-point 11 :  -0.1875 0.1875 0.0625  plane waves:     467
 k-point 12 :  -0.0625 0.1875 0.0625  plane waves:     475
 k-point 13 :   0.3125 0.3125 0.0625  plane waves:     464
 k-point 14 :   0.4375 0.3125 0.0625  plane waves:     468
 k-point 15 :  -0.4375 0.3125 0.0625  plane waves:     463
 k-point 16 :  -0.3125 0.3125 0.0625  plane waves:     465
 k-point 17 :  -0.1875 0.3125 0.0625  plane waves:     466
 k-point 18 :  -0.0625 0.3125 0.0625  plane waves:     471
 k-point 19 :   0.4375 0.4375 0.0625  plane waves:     470
 k-point 20 :  -0.4375 0.4375 0.0625  plane waves:     457
 k-point 21 :  -0.3125 0.4375 0.0625  plane waves:     462
 k-point 22 :  -0.1875 0.4375 0.0625  plane waves:     464
 k-point 23 :  -0.0625 0.4375 0.0625  plane waves:     467
 k-point 24 :  -0.4375-0.4375 0.0625  plane waves:     462
 k-point 25 :  -0.3125-0.4375 0.0625  plane waves:     469
 k-point 26 :  -0.1875-0.4375 0.0625  plane waves:     469
 k-point 27 :  -0.0625-0.4375 0.0625  plane waves:     466
 k-point 28 :  -0.3125-0.3125 0.0625  plane waves:     468
 k-point 29 :  -0.1875-0.3125 0.0625  plane waves:     470
 k-point 30 :  -0.0625-0.3125 0.0625  plane waves:     474
 k-point 31 :  -0.1875-0.1875 0.0625  plane waves:     478
 k-point 32 :  -0.0625-0.1875 0.0625  plane waves:     475
 k-point 33 :  -0.0625-0.0625 0.0625  plane waves:     464
 k-point 34 :   0.1875 0.1875 0.1875  plane waves:     475
 k-point 35 :   0.3125 0.1875 0.1875  plane waves:     478
 k-point 36 :  -0.1875 0.1875 0.1875  plane waves:     465
 k-point 37 :   0.3125 0.3125 0.1875  plane waves:     462
 k-point 38 :  -0.3125 0.3125 0.1875  plane waves:     464
 k-point 39 :  -0.1875 0.3125 0.1875  plane waves:     464
 k-point 40 :  -0.4375 0.4375 0.1875  plane waves:     466
 k-point 41 :  -0.3125 0.4375 0.1875  plane waves:     461
 k-point 42 :  -0.1875 0.4375 0.1875  plane waves:     470
 k-point 43 :  -0.4375-0.4375 0.1875  plane waves:     454
 k-point 44 :  -0.3125-0.4375 0.1875  plane waves:     466
 k-point 45 :  -0.1875-0.4375 0.1875  plane waves:     460
 k-point 46 :  -0.3125-0.3125 0.1875  plane waves:     469
 k-point 47 :  -0.1875-0.3125 0.1875  plane waves:     471
 k-point 48 :  -0.1875-0.1875 0.1875  plane waves:     488
 k-point 49 :  -0.3125 0.3125 0.3125  plane waves:     466
 k-point 50 :  -0.4375 0.4375 0.3125  plane waves:     463
 k-point 51 :  -0.3125 0.4375 0.3125  plane waves:     466
 k-point 52 :  -0.4375-0.4375 0.3125  plane waves:     470
 k-point 53 :  -0.3125-0.4375 0.3125  plane waves:     465
 k-point 54 :  -0.3125-0.3125 0.3125  plane waves:     464
 k-point 55 :  -0.4375 0.4375 0.4375  plane waves:     468
 k-point 56 :  -0.4375-0.4375 0.4375  plane waves:     480

 maximum and minimum number of plane-waves per node :       488      454

 maximum number of plane-waves:       488
 maximum index in each direction:
   IXMAX=    6   IYMAX=    6   IZMAX=    5
   IXMIN=   -6   IYMIN=   -6   IZMIN=   -6

 serial   3D FFT for wavefunctions
 parallel 3D FFT for charge:
    minimum data exchange during FFTs selected (reduces bandwidth)

 Broyden mixing: mesh for mixing (old mesh)
   NGX = 11   NGY = 11   NGZ = 11
  (NGX  = 36   NGY  = 36   NGZ  = 36)
  gives a total of   1331 points

 initial charge density was supplied:
 charge density of overlapping atoms calculated
 number of electron       8.0000000 magnetization
 keeping initial charge density in first step

 Maximum index for augmentation-charges          879 (set IRDMAX)

 First call to EWALD:  gamma=   0.561
 Maximum number of real-space cells 4x 4x 3
 Maximum number of reciprocal cells 3x 3x 3

--------------------------------------- Iteration      1(   1)  ---------------------------------------

 eigenvalue-minimisations  :   912
 total energy-change (2. order) : 0.1146824E+01  (-0.2819450E+03)
 number of electron       8.0000000 magnetization
 augmentation part        8.0000000 magnetization

 Free energy of the ion-electron system (eV)
  alpha Z        PSCENC =         4.27436517
  Ewald energy   TEWEN  =      -262.70134881
  -Hartree energ DENC   =        -2.41900025
  -exchange      EXHF   =         0.00000000
  -V(xc)+E(xc)   XCENC  =       -17.96688132
  PAW double counting   =        65.95520812      -30.76852678
  entropy T*S    EENTRO =        -0.01006368
  eigenvalues    EBANDS =        38.65181768
  atomic energy  EATOM  =       206.13125414
  Solvation  Ediel_sol  =         0.00000000
  free energy    TOTEN  =         1.14682427 eV

  energy without entropy =        1.15688795  energy(sigma->0) =        1.15185611

[...]

 eigenvalue-minimisations  :  1384
 total energy-change (2. order) :-0.1128360E+02  (-0.1094942E+02)
 number of electron       8.0000000 magnetization
 augmentation part        8.0000000 magnetization

[...]

 eigenvalue-minimisations  :  1256
 total energy-change (2. order) :-0.4092823E-06  (-0.4102043E-06)
 number of electron       7.9999994 magnetization
 augmentation part       -0.4699742 magnetization

 Broyden mixing:
  rms(total) = 0.15420E+00    rms(broyden)= 0.15420E+00
  rms(prec ) = 0.35271E+00
  weight for this iteration     100.00

[...]

 eigenvalues of (default mixing * dielectric matrix)
  average eigenvalue GAMMA=   2.6325
  2.6325

[...]

 Broyden mixing:
  rms(total) = 0.50275E-02    rms(broyden)= 0.50273E-02
  rms(prec ) = 0.14516E-01
  weight for this iteration     100.00

 eigenvalues of (default mixing * dielectric matrix)
  average eigenvalue GAMMA=   2.5616
  2.5616  2.5616

[...]

--------------------------------------- Iteration      1(   8)  ---------------------------------------

 eigenvalue-minimisations  :   608
 total energy-change (2. order) : 0.5172427E-04  (-0.3750602E-04)
 number of electron       7.9999994 magnetization
 augmentation part       -0.4747658 magnetization

 Free energy of the ion-electron system (eV)
  alpha Z        PSCENC =         4.27436517
  Ewald energy   TEWEN  =      -262.70134881
  -Hartree energ DENC   =        -2.58594578
  -exchange      EXHF   =         0.00000000
  -V(xc)+E(xc)   XCENC  =       -17.74841472
  PAW double counting   =        69.59649735      -34.49243582
  entropy T*S    EENTRO =        -0.02042228
  eigenvalues    EBANDS =        27.28734305
  atomic energy  EATOM  =       206.13125414
  Solvation  Ediel_sol  =         0.00000000
  free energy    TOTEN  =       -10.25910770 eV

  energy without entropy =      -10.23868542  energy(sigma->0) =      -10.24889656

 average (electrostatic) potential at core
  the test charge radii are     0.9892
  (the norm of the test charge is              1.0000)
       1 -80.9293       2 -80.9293

 E-fermi :   8.7212     XC(G=0): -10.7758     alpha+bet :-15.2271

 k-point     1 :       0.0625    0.0625    0.0625
  band No.  band energies     occupation
      1      -4.2111      2.00000
      2       4.4671      2.00000
      3       6.7311      2.00000
      4       8.2671      1.99868
      5      11.8859      0.00000
      6      13.7686      0.00000
      7      14.3343      0.00000
      8      16.1941      0.00000

[...]

 k-point    56 :      -0.4375   -0.4375    0.4375
  band No.  band energies     occupation
      1       0.8228      2.00000
      2       0.8614      2.00000
      3       2.4806      2.00000
      4       2.4806      2.00000
      5      10.2956      0.00000
      6      18.3314      0.00000
      7      20.2702      0.00000
      8      20.3081      0.00000

 soft charge-density along one line, spin component           1
         0         1         2         3         4         5         6         7         8         9
 total charge-density along one line

------------------------ aborting loop because EDIFF is reached ----------------------------------------

  FORCE on cell =-STRESS in cart. coord.  units (eV):
  Direction    XX          YY          ZZ          XY          YZ          ZX
  Alpha Z     4.27437     4.27437     4.27437
  Ewald     -86.97737   -86.97737   -88.74682    -0.00000     0.00000     0.00000
  Hartree     0.81593     0.81593     0.95833    -0.00000    -0.00000    -0.00000
  E(xc)     -25.25705   -25.25705   -25.12006    -0.00000     0.00000     0.00000
  Local     -14.84673   -14.84673   -11.26132    -0.00002    -0.00002    -0.00002
  n-local    77.24173    77.33088    74.92597     1.19829    -0.39253    -0.49274
  augment   -12.14320   -12.14320   -11.98168     0.00002     0.00002     0.00002
  Kinetic    54.56537    57.47203    57.05272     2.57401    -1.81237    -1.64197
  Fock        0.00000     0.00000     0.00000     0.00000     0.00000     0.00000
  Total      -0.82906    -0.82906     0.10150     0.00000    -0.00000     0.00000
  in kB     -42.16515   -42.16515     5.16237     0.00000    -0.00000     0.00000

 VOLUME and BASIS-vectors are now :
  energy-cutoff  :      350.00
  volume of cell :       31.50
      direct lattice vectors                 reciprocal lattice vectors
    -2.427193000  2.427193000  1.336822000    -0.000000000  0.205999276  0.374021373
     2.427193000 -2.427193000  1.336822000     0.205999276 -0.000000000  0.374021373
     2.427193000  2.427193000 -1.336822000     0.205999276  0.205999276 -0.000000000

  length of vectors
     3.683697162  3.683697162  3.683697162     0.426998465  0.426998465  0.291326970

 FORCES acting on ions
    electron-ion (+dipol)            ewald-force                    non-local-force                 convergence-correction
   -.165E-06 0.165E-06 0.930E-14   0.176E-15 0.478E-15 0.317E-15   -.552E-16 0.419E-16 -.259E-16   -.257E-08 0.257E-08 -.110E-15
   0.165E-06 -.165E-06 -.493E-13   -.182E-15 -.818E-15 -.159E-15   0.632E-16 -.339E-16 0.254E-16   0.257E-08 -.257E-08 0.973E-16
   -.231E-13 0.180E-13 -.400E-13   -.602E-17 -.340E-15 0.158E-15   0.796E-17 0.796E-17 -.510E-18   -.526E-16 -.685E-15 -.129E-16

 POSITION                                       TOTAL-FORCE (eV/Angst)
      0.00000      2.42719      0.66841         0.000000     -0.000000      0.000000
      0.00000      0.00000      1.33682        -0.000000      0.000000     -0.000000
    total drift:                               -0.000000      0.000000     -0.000000

  FREE ENERGIE OF THE ION-ELECTRON SYSTEM (eV)
  free  energy   TOTEN  =       -10.25910770 eV

  energy  without entropy=      -10.23868542  energy(sigma->0) =      -10.24889656

 reached required accuracy - stopping structural energy minimisation
 writing wavefunctions