 vasp.5.4.4.18Apr17-6-g9f103f2a35 (build Dec 09 2018 21:25:21) complex

 executed on IFC18.0.1.163_CrayMP date 2019.03.19  13:40:27

 INCAR:
 POTCAR:   PAW_PBE Si 05Jan2001

 POTCAR:   PAW_PBE Si 05Jan2001
   VRHFIN =Si: s2p2

   TITEL  = PAW_PBE Si 05Jan2001
   POMASS =   28.085; ZVAL   =    4.000    mass and valenz
   ENMAX  =  245.345; ENMIN  =  184.009 eV
   QCUT   =   -4.246; QGAM   =    8.493    optimization parameters

   Description
     l     E      TYP  RCUT    TYP  RCUT
     0   .000     23  1.900
     0   .000     23  1.900
     1   .000     23  1.900
     1   .000     23  1.900
     2   .000      7  1.900

 PAW_PBE Si 05Jan2001                   :

 POSCAR: Si2
  positions in direct lattice
 exchange correlation table for  LEXCH =        8
   RHO(1)=    0.500       N(1)  =     2000
   RHO(2)=  100.500       N(2)  =     4000

 ion  position               nearest neighbor table
   1  0.500  0.500  0.500-   2 2.35   2 2.35   2 2.35   2 2.35
   2  0.750  0.750  0.750-   1 2.35   1 2.35   1 2.35   1 2.35

  LATTYP: Found a face centered cubic cell.
 ALAT       =     5.4300000000

  Lattice vectors:

 A1 = (   0.0000000000,   2.7150000000,   2.7150000000)
 A2 = (   2.7150000000,   0.0000000000,   2.7150000000)
 A3 = (   2.7150000000,   2.7150000000,   0.0000000000)

Analysis of symmetry for initial positions (statically):
 Subroutine PRICEL returns:
 Original cell was already a primitive cell.

 Routine SETGRP: Setting up the symmetry group for a
 face centered cubic supercell.

 Subroutine GETGRP returns: Found 48 space group operations
 (whereof 24 operations were pure point group operations)
 out of a pool of 48 trial point group operations.

The static configuration has the point symmetry T_d .
 The point group associated with its full space group is O_h .

Analysis of symmetry for dynamics (positions and initial velocities):
 Subroutine PRICEL returns:
 Original cell was already a primitive cell.

 Routine SETGRP: Setting up the symmetry group for a
 face centered cubic supercell.

 Subroutine GETGRP returns: Found 48 space group operations
 (whereof 24 operations were pure point group operations)
 out of a pool of 48 trial point group operations.

The dynamic configuration has the point symmetry T_d .
 The point group associated with its full space group is O_h .

 Subroutine INISYM returns: Found 48 space group operations
 (whereof 24 operations are pure point group operations),
 and found     1 'primitive' translations

 KPOINTS: Automatic kpoint scheme

Automatic generation of k-mesh.
Space group operators:
 irot       det(A)        alpha          n_x          n_y          n_z        tau_x        tau_y        tau_z
    1     1.000000     0.000001     1.000000     0.000000     0.000000     0.000000     0.000000     0.000000
    2     1.000000   120.000000    -0.577350    -0.577350    -0.577350     0.000000     0.000000     0.000000
    3     1.000000   120.000000     0.577350     0.577350     0.577350     0.000000     0.000000     0.000000
    4    -1.000000    90.000000    -0.000000    -0.000000    -1.000000     0.000000     0.000000     0.000000
    5    -1.000000   180.000000    -0.000000     0.707107     0.707107     0.000000     0.000000     0.000000
    6    -1.000000    90.000000    -0.000000     1.000000    -0.000000     0.000000     0.000000     0.000000
    7     1.000000   180.000000     0.000000     0.000000    -1.000000     0.000000     0.000000     0.000000
    8     1.000000   120.000000    -0.577350     0.577350     0.577350     0.000000     0.000000     0.000000
    9     1.000000   120.000000    -0.577350     0.577350    -0.577350     0.000000     0.000000     0.000000
   10    -1.000000    90.000000     0.000000     0.000000     1.000000     0.000000     0.000000     0.000000
   11    -1.000000    90.000000    -1.000000     0.000000    -0.000000     0.000000     0.000000     0.000000
   12    -1.000000   180.000000     0.707107     0.000000     0.707107     0.000000     0.000000     0.000000
   13     1.000000   120.000000     0.577350    -0.577350     0.577350     0.000000     0.000000     0.000000
   14     1.000000   120.000000    -0.577350    -0.577350     0.577350     0.000000     0.000000     0.000000
   15     1.000000   180.000000     1.000000     0.000000     0.000000     0.000000     0.000000     0.000000
   16    -1.000000    90.000000     0.000000    -1.000000     0.000000     0.000000     0.000000     0.000000
   17    -1.000000   180.000000     0.707107     0.707107    -0.000000     0.000000     0.000000     0.000000
   18    -1.000000    90.000000     1.000000     0.000000     0.000000     0.000000     0.000000     0.000000
   19     1.000000   120.000000     0.577350    -0.577350    -0.577350     0.000000     0.000000     0.000000
   20     1.000000   180.000000     0.000000    -1.000000     0.000000     0.000000     0.000000     0.000000
   21     1.000000   120.000000     0.577350     0.577350    -0.577350     0.000000     0.000000     0.000000
   22    -1.000000   180.000000    -0.000000    -0.707107     0.707107     0.000000     0.000000     0.000000
   23    -1.000000   180.000000     0.707107    -0.707107    -0.000000     0.000000     0.000000     0.000000
   24    -1.000000   180.000000    -0.707107     0.000000     0.707107     0.000000     0.000000     0.000000
   25    -1.000000     0.000001     1.000000     0.000000     0.000000     0.250000     0.250000     0.250000
   26    -1.000000   120.000000    -0.577350    -0.577350    -0.577350     0.250000     0.250000     0.250000
   27    -1.000000   120.000000     0.577350     0.577350     0.577350     0.250000     0.250000     0.250000
   28     1.000000    90.000000    -0.000000    -0.000000    -1.000000     0.250000     0.250000     0.250000
   29     1.000000   180.000000    -0.000000     0.707107     0.707107     0.250000     0.250000     0.250000
   30     1.000000    90.000000    -0.000000     1.000000    -0.000000     0.250000     0.250000     0.250000
   31    -1.000000   180.000000     0.000000     0.000000    -1.000000     0.250000     0.250000     0.250000
   32    -1.000000   120.000000    -0.577350     0.577350     0.577350     0.250000     0.250000     0.250000
   33    -1.000000   120.000000    -0.577350     0.577350    -0.577350     0.250000     0.250000     0.250000
   34     1.000000    90.000000     0.000000     0.000000     1.000000     0.250000     0.250000     0.250000
   35     1.000000    90.000000    -1.000000     0.000000    -0.000000     0.250000     0.250000     0.250000
   36     1.000000   180.000000     0.707107     0.000000     0.707107     0.250000     0.250000     0.250000
   37    -1.000000   120.000000     0.577350    -0.577350     0.577350     0.250000     0.250000     0.250000
   38    -1.000000   120.000000    -0.577350    -0.577350     0.577350     0.250000     0.250000     0.250000
   39    -1.000000   180.000000     1.000000     0.000000     0.000000     0.250000     0.250000     0.250000
   40     1.000000    90.000000     0.000000    -1.000000     0.000000     0.250000     0.250000     0.250000
   41     1.000000   180.000000     0.707107     0.707107    -0.000000     0.250000     0.250000     0.250000
   42     1.000000    90.000000     1.000000     0.000000     0.000000     0.250000     0.250000     0.250000
   43    -1.000000   120.000000     0.577350    -0.577350    -0.577350     0.250000     0.250000     0.250000
   44    -1.000000   180.000000     0.000000    -1.000000     0.000000     0.250000     0.250000     0.250000
   45    -1.000000   120.000000     0.577350     0.577350    -0.577350     0.250000     0.250000     0.250000
   46     1.000000   180.000000    -0.000000    -0.707107     0.707107     0.250000     0.250000     0.250000
   47     1.000000   180.000000     0.707107    -0.707107    -0.000000     0.250000     0.250000     0.250000
   48     1.000000   180.000000    -0.707107     0.000000     0.707107     0.250000     0.250000     0.250000

 Subroutine IBZKPT returns following result:

 Found     35 irreducible k-points:

 Following reciprocal coordinates:
            Coordinates               Weight
  0.000000  0.000000  0.000000      1.000000
  0.111111  0.000000  0.000000      8.000000
  0.222222 -0.000000  0.000000      8.000000
  0.333333  0.000000  0.000000      8.000000
  0.444444 -0.000000  0.000000      8.000000
  0.111111  0.111111  0.000000      6.000000
  0.222222  0.111111  0.000000     24.000000
  0.333333  0.111111  0.000000     24.000000
  0.444444  0.111111  0.000000     24.000000
 -0.444444  0.111111  0.000000     24.000000
 -0.333333  0.111111 -0.000000     24.000000
 -0.222222  0.111111  0.000000     24.000000
 -0.111111  0.111111 -0.000000     12.000000
  0.222222  0.222222  0.000000      6.000000
  0.333333  0.222222  0.000000     24.000000
  0.444444  0.222222  0.000000     24.000000
 -0.444444  0.222222  0.000000     24.000000
 -0.333333  0.222222  0.000000     24.000000
 -0.222222  0.222222 -0.000000     12.000000
  0.333333  0.333333  0.000000      6.000000
  0.444444  0.333333  0.000000     24.000000
 -0.444444  0.333333 -0.000000     24.000000
 -0.333333  0.333333  0.000000     12.000000
  0.444444  0.444444  0.000000      6.000000
 -0.444444  0.444444 -0.000000     12.000000
  0.333333  0.222222  0.111111     24.000000
  0.444444  0.222222  0.111111     48.000000
 -0.444444  0.222222  0.111111     48.000000
  0.444444  0.333333  0.111111     24.000000
 -0.444444  0.333333  0.111111     48.000000
 -0.333333  0.333333  0.111111     48.000000
 -0.222222  0.333333  0.111111     24.000000
 -0.444444  0.444444  0.111111     24.000000
 -0.333333  0.444444  0.111111     24.000000
 -0.333333  0.444444  0.222222     24.000000

 Following cartesian coordinates:
            Coordinates               Weight
  0.000000  0.000000  0.000000      1.000000
 -0.020462  0.020462  0.020462      8.000000
 -0.040925  0.040925  0.040925      8.000000
 -0.061387  0.061387  0.061387      8.000000
 -0.081850  0.081850  0.081850      8.000000
  0.000000  0.000000  0.040925      6.000000
 -0.020462  0.020462  0.061387     24.000000
 -0.040925  0.040925  0.081850     24.000000
 -0.061387  0.061387  0.102312     24.000000
  0.102312 -0.102312 -0.061387     24.000000
  0.081850 -0.081850 -0.040925     24.000000
  0.061387 -0.061387 -0.020462     24.000000
  0.040925 -0.040925  0.000000     12.000000
  0.000000 -0.000000  0.081850      6.000000
 -0.020462  0.020462  0.102312     24.000000
 -0.040925  0.040925  0.122775     24.000000
  0.122775 -0.122775 -0.040925     24.000000
  0.102312 -0.102312 -0.020462     24.000000
  0.081850 -0.081850  0.000000     12.000000
  0.000000  0.000000  0.122775      6.000000
 -0.020462  0.020462  0.143237     24.000000
  0.143237 -0.143237 -0.020462     24.000000
  0.122775 -0.122775  0.000000     12.000000
  0.000000 -0.000000  0.163700      6.000000
  0.163700 -0.163700  0.000000     12.000000
  0.000000  0.040925  0.081850     24.000000
 -0.020462  0.061387  0.102312     48.000000
  0.143237 -0.102312 -0.061387     48.000000
 -0.000000  0.040925  0.122775     24.000000
  0.163700 -0.122775 -0.040925     48.000000
  0.143237 -0.102312 -0.020462     48.000000
[...]
   LCHARG       =      T    write CHGCAR
   LVTOT        =      F    write LOCPOT, total local potential
   LVHAR        =      F    write LOCPOT, Hartree potential only
   LELF         =      F    write electronic localiz. function (ELF)
   LORBIT       =      0    0 simple, 1 ext, 2 COOP (PROOUT), +10 PAW based schemes

 Dipole corrections
   LMONO  =      F    monopole corrections only (constant potential shift)
   LDIPOL =      F    correct potential (dipole corrections)
   IDIPOL =      0    1-x, 2-y, 3-z, 4-all directions
   EPSILON=  1.0000000 bulk dielectric constant

 Exchange correlation treatment:
   GGA     =    --    GGA type
   VOSKOWN=      0    Vosko Wilk Nusair interpolation
   LHFCALC =     F    Hartree Fock is set to
   LHFONE  =     F    Hartree Fock one center treatment
   AEXX    =    0.0000 exact exchange contribution

 Linear response parameters
   LEPSILON=     F    determine dielectric tensor
   LRPA    =     F    only Hartree local field effects (RPA)
   LNABLA  =     F    use nabla operator in PAW spheres
   LVEL    =     F    velocity operator in full k-point grid
   LINTERFAST=   F  fast interpolation
   KINTER  =     0    interpolate to denser k-point grid
   CSHIFT  =0.1000    complex shift for real part using Kramers Kronig
   OMEGAMAX=  -1.0    maximum frequency
   DEG_THRESHOLD= 0.2000000E-02 threshold for treating states as degnerate
   RTIME   =   -0.100 relaxation time in fs
  (WPLASMAI=    0.000 imaginary part of plasma frequency in eV, 0.658/RTIME)
   DFIELD  = 0.0000000 0.0000000 0.0000000 field for delta impulse in time

 Orbital magnetization related:
   ORBITALMAG=     F  switch on orbital magnetization
   LCHIMAG   =     F  perturbation theory with respect to B field
   DQ        =  0.001000  dq finite difference perturbation B field
   LLRAUG    =     F  two centre corrections for induced B field

 conjugate gradient relaxation of ions
 charge density and potential will be updated during run
 non-spin polarized calculation
 Variant of blocked Davidson
 Davidson routine will perform the subspace rotation
 perform sub-space diagonalisation
    after iterative eigenvector-optimisation
 modified Broyden-mixing scheme, WC =      100.0
 initial mixing is a Kerker type mixing with AMIX =  0.4000 and BMIX =      1.0000
 Hartree-type preconditioning will be used
 using additional bands            4
 reciprocal scheme for non local part
 use partial core corrections
 calculate Harris-corrections to forces
   (improved forces if not selfconsistent)
 use gradient corrections
 use of overlap-Matrix (Vanderbilt PP)
 Gauss-broadening in eV      SIGMA  =   0.20

  energy-cutoff  :      300.00
  volume of cell :       40.03
      direct lattice vectors                 reciprocal lattice vectors
     0.000000000  2.715000000  2.715000000    -0.184162063  0.184162063  0.184162063
     2.715000000  0.000000000  2.715000000     0.184162063 -0.184162063  0.184162063
     2.715000000  2.715000000  0.000000000     0.184162063  0.184162063 -0.184162063

  length of vectors
     3.839589822  3.839589822  3.839589822     0.318978049  0.318978049  0.318978049

 k-points in units of 2pi/SCALE and weight: Automatic kpoint scheme
   0.00000000  0.00000000  0.00000000       0.001
  -0.02046245  0.02046245  0.02046245       0.011
  -0.04092490  0.04092490  0.04092490       0.011
  -0.06138735  0.06138735  0.06138735       0.011
  -0.08184981  0.08184981  0.08184981       0.011
  -0.00000000  0.00000000  0.04092490       0.008
  -0.02046245  0.02046245  0.06138735       0.033
  -0.04092490  0.04092490  0.08184981       0.033
  -0.06138735  0.06138735  0.10231226       0.033
   0.10231226 -0.10231226 -0.06138735       0.033
   0.08184981 -0.08184981 -0.04092490       0.033
   0.06138735 -0.06138735 -0.02046245       0.033
   0.04092490 -0.04092490  0.00000000       0.016
   0.00000000 -0.00000000  0.08184981       0.008
  -0.02046245  0.02046245  0.10231226       0.033
  -0.04092490  0.04092490  0.12277471       0.033
   0.12277471 -0.12277471 -0.04092490       0.033
   0.10231226 -0.10231226 -0.02046245       0.033
   0.08184981 -0.08184981 -0.00000000       0.016
   0.00000000  0.00000000  0.12277471       0.008
  -0.02046245  0.02046245  0.14323716       0.033
   0.14323716 -0.14323716 -0.02046245       0.033
   0.12277471 -0.12277471 -0.00000000       0.016
   0.00000000 -0.00000000  0.16369961       0.008
   0.16369961 -0.16369961 -0.00000000       0.016
   0.00000000  0.04092490  0.08184981       0.033
  -0.02046245  0.06138735  0.10231226       0.066
   0.14323716 -0.10231226 -0.06138735       0.066
  -0.00000000  0.04092490  0.12277471       0.033
   0.16369961 -0.12277471 -0.04092490       0.066
   0.14323716 -0.10231226 -0.02046245       0.066
   0.12277471 -0.08184981 -0.00000000       0.033
   0.18416206 -0.14323716 -0.02046245       0.033
   0.16369961 -0.12277471 -0.00000000       0.033
   0.18416206 -0.10231226 -0.02046245       0.033

 k-points in reciprocal lattice and weights: Automatic kpoint scheme
   0.00000000  0.00000000  0.00000000       0.001
   0.11111111  0.00000000  0.00000000       0.011
   0.22222222 -0.00000000  0.00000000       0.011
   0.33333333  0.00000000  0.00000000       0.011
   0.44444444 -0.00000000  0.00000000       0.011
   0.11111111  0.11111111  0.00000000       0.008
   0.22222222  0.11111111  0.00000000       0.033
   0.33333333  0.11111111  0.00000000       0.033
   0.44444444  0.11111111  0.00000000       0.033
  -0.44444444  0.11111111  0.00000000       0.033
  -0.33333333  0.11111111 -0.00000000       0.033
  -0.22222222  0.11111111  0.00000000       0.033
  -0.11111111  0.11111111 -0.00000000       0.016
   0.22222222  0.22222222  0.00000000       0.008
   0.33333333  0.22222222  0.00000000       0.033
   0.44444444  0.22222222  0.00000000       0.033
  -0.44444444  0.22222222  0.00000000       0.033
  -0.33333333  0.22222222  0.00000000       0.033
  -0.22222222  0.22222222 -0.00000000       0.016
   0.33333333  0.33333333  0.00000000       0.008
   0.44444444  0.33333333  0.00000000       0.033
  -0.44444444  0.33333333 -0.00000000       0.033
  -0.33333333  0.33333333  0.00000000       0.016
   0.44444444  0.44444444  0.00000000       0.008
  -0.44444444  0.44444444 -0.00000000       0.016
   0.33333333  0.22222222  0.11111111       0.033
   0.44444444  0.22222222  0.11111111       0.066
  -0.44444444  0.22222222  0.11111111       0.066
   0.44444444  0.33333333  0.11111111       0.033
  -0.44444444  0.33333333  0.11111111       0.066
  -0.33333333  0.33333333  0.11111111       0.066
  -0.22222222  0.33333333  0.11111111       0.033
  -0.44444444  0.44444444  0.11111111       0.033
  -0.33333333  0.44444444  0.11111111       0.033
  -0.33333333  0.44444444  0.22222222       0.033

 position of ions in fractional coordinates (direct lattice)
   0.50000000  0.50000000  0.50000000
   0.75000000  0.75000000  0.75000000

 position of ions in cartesian coordinates  (Angst):
   2.71500000  2.71500000  2.71500000
   4.07250000  4.07250000  4.07250000

 k-point  1 :   0.0000 0.0000 0.0000  plane waves:     459
 k-point  2 :   0.1111 0.0000 0.0000  plane waves:     495
 k-point  3 :   0.2222-0.0000 0.0000  plane waves:     483
 k-point  4 :   0.3333 0.0000 0.0000  plane waves:     474
 k-point  5 :   0.4444-0.0000 0.0000  plane waves:     470
 k-point  6 :   0.1111 0.1111 0.0000  plane waves:     495
 k-point  7 :   0.2222 0.1111 0.0000  plane waves:     479
 k-point  8 :   0.3333 0.1111 0.0000  plane waves:     475
 k-point  9 :   0.4444 0.1111 0.0000  plane waves:     468
 k-point 10 :  -0.4444 0.1111 0.0000  plane waves:     470
 k-point 11 :  -0.3333 0.1111-0.0000  plane waves:     470
 k-point 12 :  -0.2222 0.1111 0.0000  plane waves:     473
 k-point 13 :  -0.1111 0.1111-0.0000  plane waves:     485
 k-point 14 :   0.2222 0.2222 0.0000  plane waves:     480
 k-point 15 :   0.3333 0.2222 0.0000  plane waves:     470
 k-point 16 :   0.4444 0.2222 0.0000  plane waves:     471
 k-point 17 :  -0.4444 0.2222 0.0000  plane waves:     467
 k-point 18 :  -0.3333 0.2222 0.0000  plane waves:     472
 k-point 19 :  -0.2222 0.2222-0.0000  plane waves:     479
 k-point 20 :   0.3333 0.3333 0.0000  plane waves:     472
 k-point 21 :   0.4444 0.3333 0.0000  plane waves:     465
 k-point 22 :  -0.4444 0.3333-0.0000  plane waves:     472
 k-point 23 :  -0.3333 0.3333 0.0000  plane waves:     466
 k-point 24 :   0.4444 0.4444 0.0000  plane waves:     468
 k-point 25 :  -0.4444 0.4444-0.0000  plane waves:     468
 k-point 26 :   0.3333 0.2222 0.1111  plane waves:     477
 k-point 27 :   0.4444 0.2222 0.1111  plane waves:     476
 k-point 28 :  -0.4444 0.2222 0.1111  plane waves:     469
 k-point 29 :   0.4444 0.3333 0.1111  plane waves:     472
 k-point 30 :  -0.4444 0.3333 0.1111  plane waves:     472
 k-point 31 :  -0.3333 0.3333 0.1111  plane waves:     473
 k-point 32 :  -0.2222 0.3333 0.1111  plane waves:     472
 k-point 33 :  -0.4444 0.4444 0.1111  plane waves:     469
 k-point 34 :  -0.3333 0.4444 0.1111  plane waves:     473
 k-point 35 :  -0.3333 0.4444 0.2222  plane waves:     472

 maximum and minimum number of plane-waves per node :       495      459

 maximum number of plane-waves:       495
 maximum index in each direction:
   IXMAX=    5   IYMAX=    5   IZMAX=    5
   IXMIN=   -5   IYMIN=   -5   IZMIN=   -5

 serial   3D FFT for wavefunctions
 parallel 3D FFT for charge:
    minimum data exchange during FFTs selected (reduces bandwidth)

 Broyden mixing: mesh for mixing (old mesh)
   NGX = 11   NGY = 11   NGZ = 11
  (NGX  = 32   NGY  = 32   NGZ  = 32)
  gives a total of   1331 points

 initial charge density was supplied:
 charge density of overlapping atoms calculated
 number of electron       8.0000000 magnetization
 keeping initial charge density in first step

 Maximum index for augmentation-charges          433 (set IRDMAX)

 First call to EWALD:  gamma=   0.518
 Maximum number of real-space cells 3x 3x 3
 Maximum number of reciprocal cells 3x 3x 3

--------------------------------------- Iteration      1(   1)  ---------------------------------------

 eigenvalue-minimisations  :   576
 total energy-change (2. order) : 0.2119335E+01  (-0.2454146E+03)
 number of electron       8.0000000 magnetization
 augmentation part        8.0000000 magnetization

 Free energy of the ion-electron system (eV)
  alpha Z        PSCENC =         3.36414203
  Ewald energy   TEWEN  =      -228.56352493
  -Hartree energ DENC   =       -11.00108243
  -exchange      EXHF   =         0.00000000
  -V(xc)+E(xc)   XCENC  =       -18.60181216
  PAW double counting   =        65.95520812      -30.76852678
  entropy T*S    EENTRO =        -0.02124410
  eigenvalues    EBANDS =        15.62648913
  atomic energy  EATOM  =       206.12968587
  Solvation  Ediel_sol  =         0.00000000
  free energy    TOTEN  =         2.11933474 eV

  energy without entropy =        2.14057884  energy(sigma->0) =        2.12995679

[...]

 eigenvalue-minimisations  :   864
 total energy-change (2. order) :-0.1297324E+02  (-0.1225385E+02)
 number of electron       8.0000000 magnetization
 augmentation part        8.0000000 magnetization

[...]

 Broyden mixing:
  rms(total) = 0.30082E+00    rms(broyden)= 0.30081E+00
  rms(prec ) = 0.87288E+00
  weight for this iteration     100.00

[...]

 eigenvalues of (default mixing * dielectric matrix)
  average eigenvalue GAMMA=   2.4323
  2.4323

[...]

 eigenvalue-minimisations  :   696
 total energy-change (2. order) : 0.5697378E-01  (-0.1512926E-01)
 number of electron       7.9999994 magnetization
 augmentation part       -0.4575009 magnetization

[...]

 Broyden mixing:
  rms(total) = 0.24785E-02    rms(broyden)= 0.24781E-02
  rms(prec ) = 0.82653E-02
  weight for this iteration     100.00

 eigenvalues of (default mixing * dielectric matrix)
  average eigenvalue GAMMA=   2.1188
  1.3677  2.7895  2.1990

[...]

--------------------------------------- Iteration      1(   9)  ---------------------------------------

 eigenvalue-minimisations  :   440
 total energy-change (2. order) :-0.9082518E-04  (-0.9639846E-05)
 number of electron       7.9999994 magnetization
 augmentation part       -0.4585119 magnetization

 Free energy of the ion-electron system (eV)
  alpha Z        PSCENC =         3.36414203
  Ewald energy   TEWEN  =      -228.56352493
  -Hartree energ DENC   =       -14.90925251
  -exchange      EXHF   =         0.00000000
  -V(xc)+E(xc)   XCENC  =       -17.95934075
  PAW double counting   =        74.51151890      -39.55087840
  entropy T*S    EENTRO =        -0.00016981
  eigenvalues    EBANDS =         6.14115611
  atomic energy  EATOM  =       206.12968587
  Solvation  Ediel_sol  =         0.00000000
  free energy    TOTEN  =       -10.83666349 eV

  energy without entropy =      -10.83649368  energy(sigma->0) =      -10.83657858

 average (electrostatic) potential at core
  the test charge radii are     0.9892
  (the norm of the test charge is              1.0000)
       1 -83.2490       2 -83.2490

 E-fermi :   6.1038     XC(G=0):  -9.4134     alpha+bet :-11.9845

 k-point     1 :       0.0000    0.0000    0.0000
  band No.  band energies     occupation
      1      -6.1313      2.00000
      2       5.8324      1.94509
      3       5.8324      1.94506
      4       5.8324      1.94506
      5       8.4013      0.00000
      6       8.4014      0.00000
      7       8.4014      0.00000
      8       9.2066      0.00000

[...]

 k-point    35 :      -0.3333    0.4444    0.2222
  band No.  band energies     occupation
      1      -2.4173      2.00000
      2      -1.2568      2.00000
      3       1.7760      2.00000
      4       2.4188      2.00000
      5       9.6878      0.00000
      6       9.7754      0.00000
      7      10.4790      0.00000
      8      12.2222      0.00000

 soft charge-density along one line, spin component           1
         0         1         2         3         4         5         6         7         8         9
 total charge-density along one line

------------------------ aborting loop because EDIFF is reached ----------------------------------------

  FORCE on cell =-STRESS in cart. coord.  units (eV):
  Direction    XX          YY          ZZ          XY          YZ          ZX
  Alpha Z     3.36414     3.36414     3.36414
  Ewald     -76.18788   -76.18788   -76.18788    -0.00000    -0.00000     0.00000
  Hartree     4.97288     4.97288     4.97288    -0.00000    -0.00000    -0.00000
  E(xc)     -25.37542   -25.37542   -25.37542     0.00001     0.00001     0.00001
  Local     -29.26553   -29.26553   -29.26553     0.00005     0.00005     0.00005
  n-local    78.96282    80.21825    74.48837     2.23835    -1.26693     0.58799
  augment   -11.64545   -11.64545   -11.64545    -0.00004    -0.00004    -0.00004
  Kinetic    58.81717    56.21330    55.12962     3.55308    -0.67897     1.01319
  Fock        0.00000     0.00000     0.00000     0.00000     0.00000     0.00000
  Total       0.47259     0.47259     0.47259    -0.00000     0.00000     0.00000
  in kB      18.91699    18.91699    18.91699    -0.00000     0.00000     0.00000

 VOLUME and BASIS-vectors are now :
  energy-cutoff  :      300.00
  volume of cell :       40.03
      direct lattice vectors                 reciprocal lattice vectors
     0.000000000  2.715000000  2.715000000    -0.184162063  0.184162063  0.184162063
     2.715000000  0.000000000  2.715000000     0.184162063 -0.184162063  0.184162063
     2.715000000  2.715000000  0.000000000     0.184162063  0.184162063 -0.184162063

  length of vectors
     3.839589822  3.839589822  3.839589822     0.318978049  0.318978049  0.318978049

 FORCES acting on ions
    electron-ion (+dipol)            ewald-force                    non-local-force                 convergence-correction
   0.131E-05 0.131E-05 0.222E-05   -.476E-15 -.149E-14 0.391E-14   0.115E-15 0.129E-15 0.105E-15   -.304E-06 -.304E-06 -.304E-06
   -.131E-05 -.131E-05 -.222E-05   0.623E-15 0.106E-14 -.375E-14   -.146E-15 -.146E-15 -.100E-15   0.304E-06 0.304E-06 0.304E-06
   0.104E-12 0.540E-13 0.698E-15   0.147E-15 -.426E-15 0.164E-15   -.314E-16 -.175E-16 0.446E-17   -.163E-14 -.231E-14 -.225E-14

 POSITION                                       TOTAL-FORCE (eV/Angst)
      2.71500      2.71500      2.71500        -0.000000      0.000000     -0.000000
      4.07250      4.07250      4.07250         0.000000     -0.000000      0.000000
    total drift:                                0.000000      0.000000     -0.000000

  FREE ENERGIE OF THE ION-ELECTRON SYSTEM (eV)
  free  energy   TOTEN  =       -10.83666349 eV

  energy  without entropy=      -10.83649368  energy(sigma->0) =      -10.83657858

 reached required accuracy - stopping structural energy minimisation
 writing wavefunctions