 vasp.5.4.4.18Apr17-6-g9f103f2a35 (build Dec 09 2018 21:25:21) complex

 executed on IFC18.0.1.163_CrayMP date 2019.03.20  09:40:25

 INCAR:
 POTCAR:   PAW_PBE Si 05Jan2001

 POTCAR:   PAW_PBE Si 05Jan2001
   VRHFIN =Si: s2p2

   TITEL  = PAW_PBE Si 05Jan2001
   POMASS =   28.085; ZVAL   =    4.000    mass and valenz
   ENMAX  =  245.345; ENMIN  =  184.009 eV
   QCUT   =   -4.246; QGAM   =    8.493    optimization parameters

   Description
     l     E      TYP  RCUT    TYP  RCUT
     0   .000     23  1.900
     0   .000     23  1.900
     1   .000     23  1.900
     1   .000     23  1.900
     2   .000      7  1.900

 PAW_PBE Si 05Jan2001                   :

 POSCAR: Si2
  positions in direct lattice
 exchange correlation table for  LEXCH =        8
   RHO(1)=    0.500       N(1)  =     2000
   RHO(2)=  100.500       N(2)  =     4000

 ion  position               nearest neighbor table
   1  0.500  0.500  0.500-   2 2.35   2 2.35   2 2.35   2 2.35
   2  0.750  0.750  0.750-   1 2.35   1 2.35   1 2.35   1 2.35

  LATTYP: Found a face centered cubic cell.
 ALAT       =     5.4300000000

  Lattice vectors:

 A1 = (   0.0000000000,   2.7150000000,   2.7150000000)
 A2 = (   2.7150000000,   0.0000000000,   2.7150000000)
 A3 = (   2.7150000000,   2.7150000000,   0.0000000000)

Analysis of symmetry for initial positions (statically):
 Subroutine PRICEL returns:
 Original cell was already a primitive cell.

 Routine SETGRP: Setting up the symmetry group for a
 face centered cubic supercell.

 Subroutine GETGRP returns: Found 48 space group operations
 (whereof 24 operations were pure point group operations)
 out of a pool of 48 trial point group operations.

The static configuration has the point symmetry T_d .
 The point group associated with its full space group is O_h .

Analysis of symmetry for dynamics (positions and initial velocities):
 Subroutine PRICEL returns:
 Original cell was already a primitive cell.

 Routine SETGRP: Setting up the symmetry group for a
 face centered cubic supercell.

 Subroutine GETGRP returns: Found 48 space group operations
 (whereof 24 operations were pure point group operations)
 out of a pool of 48 trial point group operations.

The dynamic configuration has the point symmetry T_d .
 The point group associated with its full space group is O_h .

 Subroutine INISYM returns: Found 48 space group operations
 (whereof 24 operations are pure point group operations),
 and found     1 'primitive' translations

 KPOINTS: Automatic kpoint scheme

Automatic generation of k-mesh.
Space group operators:
 irot       det(A)        alpha          n_x          n_y          n_z        tau_x        tau_y        tau_z
    1     1.000000     0.000001     1.000000     0.000000     0.000000     0.000000     0.000000     0.000000
    2     1.000000   120.000000    -0.577350    -0.577350    -0.577350     0.000000     0.000000     0.000000
    3     1.000000   120.000000     0.577350     0.577350     0.577350     0.000000     0.000000     0.000000
    4    -1.000000    90.000000    -0.000000    -0.000000    -1.000000     0.000000     0.000000     0.000000
    5    -1.000000   180.000000    -0.000000     0.707107     0.707107     0.000000     0.000000     0.000000
    6    -1.000000    90.000000    -0.000000     1.000000    -0.000000     0.000000     0.000000     0.000000
    7     1.000000   180.000000     0.000000     0.000000    -1.000000     0.000000     0.000000     0.000000
    8     1.000000   120.000000    -0.577350     0.577350     0.577350     0.000000     0.000000     0.000000
    9     1.000000   120.000000    -0.577350     0.577350    -0.577350     0.000000     0.000000     0.000000
   10    -1.000000    90.000000     0.000000     0.000000     1.000000     0.000000     0.000000     0.000000
   11    -1.000000    90.000000    -1.000000     0.000000    -0.000000     0.000000     0.000000     0.000000
   12    -1.000000   180.000000     0.707107     0.000000     0.707107     0.000000     0.000000     0.000000
   13     1.000000   120.000000     0.577350    -0.577350     0.577350     0.000000     0.000000     0.000000
   14     1.000000   120.000000    -0.577350    -0.577350     0.577350     0.000000     0.000000     0.000000
   15     1.000000   180.000000     1.000000     0.000000     0.000000     0.000000     0.000000     0.000000
   16    -1.000000    90.000000     0.000000    -1.000000     0.000000     0.000000     0.000000     0.000000
   17    -1.000000   180.000000     0.707107     0.707107    -0.000000     0.000000     0.000000     0.000000
   18    -1.000000    90.000000     1.000000     0.000000     0.000000     0.000000     0.000000     0.000000
   19     1.000000   120.000000     0.577350    -0.577350    -0.577350     0.000000     0.000000     0.000000
   20     1.000000   180.000000     0.000000    -1.000000     0.000000     0.000000     0.000000     0.000000
   21     1.000000   120.000000     0.577350     0.577350    -0.577350     0.000000     0.000000     0.000000
   22    -1.000000   180.000000    -0.000000    -0.707107     0.707107     0.000000     0.000000     0.000000
   23    -1.000000   180.000000     0.707107    -0.707107    -0.000000     0.000000     0.000000     0.000000
   24    -1.000000   180.000000    -0.707107     0.000000     0.707107     0.000000     0.000000     0.000000
   25    -1.000000     0.000001     1.000000     0.000000     0.000000     0.250000     0.250000     0.250000
   26    -1.000000   120.000000    -0.577350    -0.577350    -0.577350     0.250000     0.250000     0.250000
   27    -1.000000   120.000000     0.577350     0.577350     0.577350     0.250000     0.250000     0.250000
   28     1.000000    90.000000    -0.000000    -0.000000    -1.000000     0.250000     0.250000     0.250000
   29     1.000000   180.000000    -0.000000     0.707107     0.707107     0.250000     0.250000     0.250000
   30     1.000000    90.000000    -0.000000     1.000000    -0.000000     0.250000     0.250000     0.250000
   31    -1.000000   180.000000     0.000000     0.000000    -1.000000     0.250000     0.250000     0.250000
   32    -1.000000   120.000000    -0.577350     0.577350     0.577350     0.250000     0.250000     0.250000
   33    -1.000000   120.000000    -0.577350     0.577350    -0.577350     0.250000     0.250000     0.250000
   34     1.000000    90.000000     0.000000     0.000000     1.000000     0.250000     0.250000     0.250000
   35     1.000000    90.000000    -1.000000     0.000000    -0.000000     0.250000     0.250000     0.250000
   36     1.000000   180.000000     0.707107     0.000000     0.707107     0.250000     0.250000     0.250000
   37    -1.000000   120.000000     0.577350    -0.577350     0.577350     0.250000     0.250000     0.250000
   38    -1.000000   120.000000    -0.577350    -0.577350     0.577350     0.250000     0.250000     0.250000
   39    -1.000000   180.000000     1.000000     0.000000     0.000000     0.250000     0.250000     0.250000
   40     1.000000    90.000000     0.000000    -1.000000     0.000000     0.250000     0.250000     0.250000
   41     1.000000   180.000000     0.707107     0.707107    -0.000000     0.250000     0.250000     0.250000
   42     1.000000    90.000000     1.000000     0.000000     0.000000     0.250000     0.250000     0.250000
   43    -1.000000   120.000000     0.577350    -0.577350    -0.577350     0.250000     0.250000     0.250000
   44    -1.000000   180.000000     0.000000    -1.000000     0.000000     0.250000     0.250000     0.250000
   45    -1.000000   120.000000     0.577350     0.577350    -0.577350     0.250000     0.250000     0.250000
   46     1.000000   180.000000    -0.000000    -0.707107     0.707107     0.250000     0.250000     0.250000
   47     1.000000   180.000000     0.707107    -0.707107    -0.000000     0.250000     0.250000     0.250000
   48     1.000000   180.000000    -0.707107     0.000000     0.707107     0.250000     0.250000     0.250000

 Subroutine IBZKPT returns following result:

 Found    110 irreducible k-points:

 Following reciprocal coordinates:
            Coordinates               Weight
  0.050000  0.050000  0.050000     96.000000
  0.150000  0.050000  0.050000    288.000000
  0.250000  0.050000  0.050000    288.000000
  0.350000  0.050000  0.050000    288.000000
  0.450000  0.050000  0.050000    288.000000
 -0.450000  0.050000  0.050000    288.000000
 -0.350000  0.050000  0.050000    288.000000
 -0.250000  0.050000  0.050000    288.000000
 -0.150000  0.050000  0.050000    288.000000
 -0.050000  0.050000  0.050000    288.000000
  0.150000  0.150000  0.050000    288.000000
  0.250000  0.150000  0.050000    576.000000
  0.350000  0.150000  0.050000    576.000000
  0.450000  0.150000  0.050000    576.000000
 -0.450000  0.150000  0.050000    576.000000
 -0.350000  0.150000  0.050000    576.000000
 -0.250000  0.150000  0.050000    576.000000
 -0.150000  0.150000  0.050000    576.000000
 -0.050000  0.150000  0.050000    576.000000
  0.250000  0.250000  0.050000    288.000000
  0.350000  0.250000  0.050000    576.000000
  0.450000  0.250000  0.050000    576.000000
 -0.450000  0.250000  0.050000    576.000000
 -0.350000  0.250000  0.050000    576.000000
 -0.250000  0.250000  0.050000    576.000000
 -0.150000  0.250000  0.050000    576.000000
 -0.050000  0.250000  0.050000    576.000000
  0.350000  0.350000  0.050000    288.000000
  0.450000  0.350000  0.050000    576.000000
 -0.450000  0.350000  0.050000    576.000000
 -0.350000  0.350000  0.050000    576.000000
 -0.250000  0.350000  0.050000    576.000000
 -0.150000  0.350000  0.050000    576.000000
 -0.050000  0.350000  0.050000    576.000000
  0.450000  0.450000  0.050000    288.000000
 -0.450000  0.450000  0.050000    576.000000
 -0.350000  0.450000  0.050000    576.000000
 -0.250000  0.450000  0.050000    576.000000
 -0.150000  0.450000  0.050000    576.000000
 -0.050000  0.450000  0.050000    576.000000
 -0.450000 -0.450000  0.050000    288.000000
 -0.350000 -0.450000  0.050000    576.000000
 -0.250000 -0.450000  0.050000    576.000000
 -0.150000 -0.450000  0.050000    576.000000
 -0.350000 -0.350000  0.050000    288.000000
 -0.250000 -0.350000  0.050000    576.000000
 -0.150000 -0.350000  0.050000    576.000000
 -0.250000 -0.250000  0.050000    288.000000
 -0.150000 -0.250000  0.050000    576.000000
 -0.150000 -0.150000  0.050000    288.000000
  0.150000  0.150000  0.150000     96.000000
  0.250000  0.150000  0.150000    288.000000
  0.350000  0.150000  0.150000    288.000000
  0.450000  0.150000  0.150000    288.000000
 -0.450000  0.150000  0.150000    288.000000
 -0.350000  0.150000  0.150000    288.000000
 -0.250000  0.150000  0.150000    288.000000
 -0.150000  0.150000  0.150000    288.000000
  0.250000  0.250000  0.150000    288.000000
  0.350000  0.250000  0.150000    576.000000
[...]
 -0.350000  0.450000  0.250000    576.000000
 -0.250000  0.450000  0.250000    576.000000
 -0.450000 -0.450000  0.250000    288.000000
 -0.350000 -0.450000  0.250000    576.000000
 -0.350000 -0.350000  0.250000    288.000000
  0.350000  0.350000  0.350000     96.000000
  0.450000  0.350000  0.350000    288.000000
 -0.450000  0.350000  0.350000    288.000000
[...]
   0.50000000  0.50000000  0.50000000
   0.75000000  0.75000000  0.75000000

 position of ions in cartesian coordinates  (Angst):
   2.71500000  2.71500000  2.71500000
   4.07250000  4.07250000  4.07250000

 k-point  1 :   0.0500 0.0500 0.0500  plane waves:     169
 k-point  2 :   0.1500 0.0500 0.0500  plane waves:     169
 k-point  3 :   0.2500 0.0500 0.0500  plane waves:     164
 k-point  4 :   0.3500 0.0500 0.0500  plane waves:     159
 k-point  5 :   0.4500 0.0500 0.0500  plane waves:     165
 k-point  6 :  -0.4500 0.0500 0.0500  plane waves:     166
 k-point  7 :  -0.3500 0.0500 0.0500  plane waves:     165
 k-point  8 :  -0.2500 0.0500 0.0500  plane waves:     161
 k-point  9 :  -0.1500 0.0500 0.0500  plane waves:     165
 k-point 10 :  -0.0500 0.0500 0.0500  plane waves:     169
 k-point 11 :   0.1500 0.1500 0.0500  plane waves:     166
 k-point 12 :   0.2500 0.1500 0.0500  plane waves:     164
 k-point 13 :   0.3500 0.1500 0.0500  plane waves:     164
 k-point 14 :   0.4500 0.1500 0.0500  plane waves:     166
 k-point 15 :  -0.4500 0.1500 0.0500  plane waves:     167
 k-point 16 :  -0.3500 0.1500 0.0500  plane waves:     165
 k-point 17 :  -0.2500 0.1500 0.0500  plane waves:     164
 k-point 18 :  -0.1500 0.1500 0.0500  plane waves:     163
 k-point 19 :  -0.0500 0.1500 0.0500  plane waves:     167
 k-point 20 :   0.2500 0.2500 0.0500  plane waves:     166
 k-point 21 :   0.3500 0.2500 0.0500  plane waves:     165
 k-point 22 :   0.4500 0.2500 0.0500  plane waves:     168
 k-point 23 :  -0.4500 0.2500 0.0500  plane waves:     168
 k-point 24 :  -0.3500 0.2500 0.0500  plane waves:     169
 k-point 25 :  -0.2500 0.2500 0.0500  plane waves:     166
 k-point 26 :  -0.1500 0.2500 0.0500  plane waves:     165
 k-point 27 :  -0.0500 0.2500 0.0500  plane waves:     163
 k-point 28 :   0.3500 0.3500 0.0500  plane waves:     171
 k-point 29 :   0.4500 0.3500 0.0500  plane waves:     168
 k-point 30 :  -0.4500 0.3500 0.0500  plane waves:     169
 k-point 31 :  -0.3500 0.3500 0.0500  plane waves:     172
 k-point 32 :  -0.2500 0.3500 0.0500  plane waves:     170
 k-point 33 :  -0.1500 0.3500 0.0500  plane waves:     166
 k-point 34 :  -0.0500 0.3500 0.0500  plane waves:     161
 k-point 35 :   0.4500 0.4500 0.0500  plane waves:     168
 k-point 36 :  -0.4500 0.4500 0.0500  plane waves:     170
 k-point 37 :  -0.3500 0.4500 0.0500  plane waves:     172
 k-point 38 :  -0.2500 0.4500 0.0500  plane waves:     171
 k-point 39 :  -0.1500 0.4500 0.0500  plane waves:     167
 k-point 40 :  -0.0500 0.4500 0.0500  plane waves:     166
 k-point 41 :  -0.4500-0.4500 0.0500  plane waves:     170
 k-point 42 :  -0.3500-0.4500 0.0500  plane waves:     170
 k-point 43 :  -0.2500-0.4500 0.0500  plane waves:     169
 k-point 44 :  -0.1500-0.4500 0.0500  plane waves:     166
 k-point 45 :  -0.3500-0.3500 0.0500  plane waves:     166
 k-point 46 :  -0.2500-0.3500 0.0500  plane waves:     166
 k-point 47 :  -0.1500-0.3500 0.0500  plane waves:     166
 k-point 48 :  -0.2500-0.2500 0.0500  plane waves:     165
 k-point 49 :  -0.1500-0.2500 0.0500  plane waves:     164
 k-point 50 :  -0.1500-0.1500 0.0500  plane waves:     166
 k-point 51 :   0.1500 0.1500 0.1500  plane waves:     168
 k-point 52 :   0.2500 0.1500 0.1500  plane waves:     164
 k-point 53 :   0.3500 0.1500 0.1500  plane waves:     162
 k-point 54 :   0.4500 0.1500 0.1500  plane waves:     166
 k-point 55 :  -0.4500 0.1500 0.1500  plane waves:     166
 k-point 56 :  -0.3500 0.1500 0.1500  plane waves:     168
 k-point 57 :  -0.2500 0.1500 0.1500  plane waves:     166
 k-point 58 :  -0.1500 0.1500 0.1500  plane waves:     162
 k-point 59 :   0.2500 0.2500 0.1500  plane waves:     164
 k-point 60 :   0.3500 0.2500 0.1500  plane waves:     166
[...]
 k-point 85 :   0.4500 0.2500 0.2500  plane waves:     164
 k-point 86 :  -0.4500 0.2500 0.2500  plane waves:     168
 k-point 87 :  -0.3500 0.2500 0.2500  plane waves:     174
 k-point 88 :  -0.2500 0.2500 0.2500  plane waves:     171
 k-point 89 :   0.3500 0.3500 0.2500  plane waves:     160
 k-point 90 :   0.4500 0.3500 0.2500  plane waves:     164
 k-point 91 :  -0.4500 0.3500 0.2500  plane waves:     167
 k-point 92 :  -0.3500 0.3500 0.2500  plane waves:     171
 k-point 93 :  -0.2500 0.3500 0.2500  plane waves:     169
 k-point 94 :   0.4500 0.4500 0.2500  plane waves:     167
 k-point 95 :  -0.4500 0.4500 0.2500  plane waves:     166
 k-point 96 :  -0.3500 0.4500 0.2500  plane waves:     164
 k-point 97 :  -0.2500 0.4500 0.2500  plane waves:     167
 k-point 98 :  -0.4500-0.4500 0.2500  plane waves:     173
 k-point 99 :  -0.3500-0.4500 0.2500  plane waves:     172
 k-point ** :  -0.3500-0.3500 0.2500  plane waves:     172
 k-point ** :   0.3500 0.3500 0.3500  plane waves:     162
 k-point ** :   0.4500 0.3500 0.3500  plane waves:     167
 k-point ** :  -0.4500 0.3500 0.3500  plane waves:     166
 k-point ** :  -0.3500 0.3500 0.3500  plane waves:     170
 k-point ** :   0.4500 0.4500 0.3500  plane waves:     167
 k-point ** :  -0.4500 0.4500 0.3500  plane waves:     167
 k-point ** :  -0.3500 0.4500 0.3500  plane waves:     169
 k-point ** :  -0.4500-0.4500 0.3500  plane waves:     168
 k-point ** :   0.4500 0.4500 0.4500  plane waves:     168
 k-point ** :  -0.4500 0.4500 0.4500  plane waves:     166

 maximum and minimum number of plane-waves per node :       174      159

 maximum number of plane-waves:       174
 maximum index in each direction:
   IXMAX=    4   IYMAX=    4   IZMAX=    3
   IXMIN=   -4   IYMIN=   -4   IZMIN=   -4

 serial   3D FFT for wavefunctions
 parallel 3D FFT for charge:
    minimum data exchange during FFTs selected (reduces bandwidth)

 Broyden mixing: mesh for mixing (old mesh)
   NGX =  7   NGY =  7   NGZ =  7
  (NGX  = 24   NGY  = 24   NGZ  = 24)
  gives a total of    343 points

 initial charge density was supplied:
 charge density of overlapping atoms calculated
 number of electron       8.0000000 magnetization
 keeping initial charge density in first step

 Maximum index for augmentation-charges          204 (set IRDMAX)

 First call to EWALD:  gamma=   0.518
 Maximum number of real-space cells 3x 3x 3
 Maximum number of reciprocal cells 3x 3x 3

--------------------------------------- Iteration      1(   1)  ---------------------------------------

 eigenvalue-minimisations  :  1944
 total energy-change (2. order) :-0.4713637E+01  (-0.1764945E+03)
 number of electron       8.0000000 magnetization
 augmentation part        8.0000000 magnetization

 Free energy of the ion-electron system (eV)
  alpha Z        PSCENC =         3.36414203
  Ewald energy   TEWEN  =      -228.56352493
  -Hartree energ DENC   =       -11.00108243
  -exchange      EXHF   =         0.00000000
  -V(xc)+E(xc)   XCENC  =       -18.60155909
  PAW double counting   =        65.95520812      -30.76852678
  entropy T*S    EENTRO =        -0.00999909
  eigenvalues    EBANDS =         8.81986854
  atomic energy  EATOM  =       206.09183643
  Solvation  Ediel_sol  =         0.00000000
  free energy    TOTEN  =        -4.71363720 eV

  energy without entropy =       -4.70363811  energy(sigma->0) =       -4.70863766

[...]

 Broyden mixing:
  rms(total) = 0.29580E+00    rms(broyden)= 0.29537E+00
  rms(prec ) = 0.85986E+00
  weight for this iteration     100.00

[...]

 eigenvalue-minimisations  :  2040
 total energy-change (2. order) : 0.1239287E+00  (-0.7681602E-02)
 number of electron       8.0000042 magnetization
 augmentation part       -0.4594665 magnetization

[...]

 eigenvalues of (default mixing * dielectric matrix)
  average eigenvalue GAMMA=   2.4358
  2.4358

[...]

 average (electrostatic) potential at core
  the test charge radii are     0.9892
  (the norm of the test charge is              1.0000)
       1 -83.2678       2 -83.2678

 E-fermi :   6.1833     XC(G=0):  -9.4163     alpha+bet :-11.9845

 k-point     1 :       0.0500    0.0500    0.0500
  band No.  band energies     occupation
      1      -6.1034      2.00000
      2       5.5129      2.00000
      3       5.8190      1.98999
      4       5.8190      1.98999
      5       8.5132      0.00000
      6       8.5368      0.00000
      7       8.5368      0.00000
      8       9.4429      0.00000

[...]

 soft charge-density along one line, spin component           1
         0         1         2         3         4         5         6         7         8         9
 total charge-density along one line

------------------------ aborting loop because EDIFF is reached ----------------------------------------

  FORCE on cell =-STRESS in cart. coord.  units (eV):
  Direction    XX          YY          ZZ          XY          YZ          ZX
  Alpha Z     3.36414     3.36414     3.36414
  Ewald     -76.18788   -76.18788   -76.18788    -0.00000    -0.00000     0.00000
  Hartree     4.96070     4.96070     4.96070     0.00000     0.00000     0.00000
  E(xc)     -25.38791   -25.38791   -25.38791    -0.00014    -0.00014    -0.00014
  Local     -29.42181   -29.42181   -29.42180     0.00023     0.00024     0.00024
  n-local    78.24074    80.65887    75.87679     1.05892    -1.09463     0.02829
  augment   -11.52320   -11.52320   -11.52320    -0.00015    -0.00015    -0.00015
  Kinetic    58.02402    55.75968    55.49602     0.84520    -0.88443     0.02617
  Fock        0.00000     0.00000     0.00000     0.00000     0.00000     0.00000
  Total       0.48941     0.48941     0.48941     0.00000     0.00000    -0.00000
  in kB      19.59060    19.59060    19.59060     0.00000     0.00000    -0.00000

 VOLUME and BASIS-vectors are now :
  energy-cutoff  :      150.00
  volume of cell :       40.03
      direct lattice vectors                 reciprocal lattice vectors
     0.000000000  2.715000000  2.715000000    -0.184162063  0.184162063  0.184162063
     2.715000000  0.000000000  2.715000000     0.184162063 -0.184162063  0.184162063
     2.715000000  2.715000000  0.000000000     0.184162063  0.184162063 -0.184162063

[...]

 FORCES acting on ions
    electron-ion (+dipol)            ewald-force                    non-local-force                 convergence-correction
   0.658E-05 0.658E-05 0.631E-05   -.476E-15 -.149E-14 0.391E-14   -.205E-16 -.205E-16 -.269E-16   -.188E-05 -.188E-05 -.188E-05
   -.658E-05 -.658E-05 -.631E-05   0.623E-15 0.106E-14 -.375E-14   0.210E-16 0.210E-16 0.269E-16   0.188E-05 0.188E-05 0.188E-05
   -.144E-12 -.617E-13 -.268E-13   0.147E-15 -.426E-15 0.164E-15   0.533E-18 0.533E-18 0.577E-19   0.312E-14 0.304E-14 -.118E-14

 POSITION                                       TOTAL-FORCE (eV/Angst)
      2.71500      2.71500      2.71500        -0.000000     -0.000000     -0.000000
      4.07250      4.07250      4.07250         0.000000      0.000000      0.000000
    total drift:                               -0.000000     -0.000000     -0.000000

  FREE ENERGIE OF THE ION-ELECTRON SYSTEM (eV)
  free  energy   TOTEN  =       -10.74484192 eV

  energy  without entropy=      -10.74479619  energy(sigma->0) =      -10.74481906

[...]

 d Force = 0.0000000E+00[ 0.000E+00, 0.000E+00]  d Energy = 0.2515004E-02-0.252E-02
 d Force = 0.0000000E+00[ 0.000E+00, 0.000E+00]  d Ewald  =-0.2666784E+01 0.267E+01

 Steepest descent step on ions:
 trial-energy change:   -0.002515  1 .order   -0.002902   -0.017333    0.011529
  (g-gl).g = 0.173E-01      g.g   = 0.173E-01  gl.gl    = 0.000E+00
 g(Force)  = 0.256E-43   g(Stress)= 0.173E-01 ortho     = 0.000E+00
 gamma     =   0.00000
 trial     =   1.00000
 opt step  =   0.60055  (harmonic =   0.60055) maximal distance =0.00000000
 next E    =   -10.750047   (d E  =  -0.00520)

[...]

 eigenvalue-minimisations  :  2208
 total energy-change (2. order) :-0.3496130E-02  (-0.4280772E-02)
 number of electron       8.0000015 magnetization
 augmentation part       -0.4517991 magnetization

[...]

 Broyden mixing:
  rms(total) = 0.74610E-02    rms(broyden)= 0.74510E-02
  rms(prec ) = 0.27236E-01
  weight for this iteration     100.00

 eigenvalues of (default mixing * dielectric matrix)
  average eigenvalue GAMMA=   2.3082
  2.3082

[...]

--------------------------------------- Iteration      3(   3)  ---------------------------------------

 eigenvalue-minimisations  :  1360
 total energy-change (2. order) : 0.3706640E-03  (-0.7499492E-04)
 number of electron       8.0000015 magnetization
 augmentation part       -0.4522326 magnetization

 Free energy of the ion-electron system (eV)
  alpha Z        PSCENC =         3.29359267
  Ewald energy   TEWEN  =      -226.95449055
  -Hartree energ DENC   =       -15.13271168
  -exchange      EXHF   =         0.00000000
  -V(xc)+E(xc)   XCENC  =       -18.02300195
  PAW double counting   =        75.87240772      -40.90142318
  entropy T*S    EENTRO =        -0.00003119
  eigenvalues    EBANDS =         5.00404641
  atomic energy  EATOM  =       206.09183643
  Solvation  Ediel_sol  =         0.00000000
  free energy    TOTEN  =       -10.74977532 eV

  energy without entropy =      -10.74974413  energy(sigma->0) =      -10.74975972

 average (electrostatic) potential at core
  the test charge radii are     0.9892
  (the norm of the test charge is              1.0000)
       1 -83.5006       2 -83.5006

 E-fermi :   5.9916     XC(G=0):  -9.3302     alpha+bet :-11.7332

[...]

 k-point   110 :      -0.4500    0.4500    0.4500
  band No.  band energies     occupation
      1      -3.8218      2.00000
      2      -1.1751      2.00000
      3       3.6029      2.00000
      4       4.2993      2.00000
      5       7.7725      0.00000
      6       9.0738      0.00000
      7       9.4818      0.00000
      8      13.7459      0.00000

 soft charge-density along one line, spin component           1
         0         1         2         3         4         5         6         7         8         9
 total charge-density along one line

------------------------ aborting loop because EDIFF is reached ----------------------------------------

  FORCE on cell =-STRESS in cart. coord.  units (eV):
  Direction    XX          YY          ZZ          XY          YZ          ZX
  Alpha Z     3.29359     3.29359     3.29359
  Ewald     -75.65153   -75.65153   -75.65153     0.00000     0.00000    -0.00000
  Hartree     5.04522     5.04522     5.04522     0.00000     0.00000     0.00000
  E(xc)     -25.26634   -25.26634   -25.26634    -0.00018    -0.00018    -0.00018
  Local     -29.70537   -29.70537   -29.70536     0.00024     0.00024     0.00024
  n-local    77.82458    80.23695    75.47630     1.03592    -1.07117     0.02817
  augment   -11.51542   -11.51542   -11.51542    -0.00017    -0.00017    -0.00017
  Kinetic    57.48242    55.45262    54.88324     0.86399    -0.90359     0.02646
  Fock        0.00000     0.00000     0.00000     0.00000     0.00000     0.00000
  Total      -0.01448    -0.01448    -0.01448     0.00000    -0.00000     0.00000
  in kB      -0.56729    -0.56729    -0.56729     0.00000    -0.00000     0.00000

 VOLUME and BASIS-vectors are now :
  energy-cutoff  :      150.00
  volume of cell :       40.88
      direct lattice vectors                 reciprocal lattice vectors
     0.000000000  2.734248477  2.734248477    -0.182865604  0.182865604  0.182865604
     2.734248477  0.000000000  2.734248477     0.182865604 -0.182865604  0.182865604
     2.734248477  2.734248477 -0.000000000     0.182865604  0.182865604 -0.182865604

  length of vectors
     3.866811279  3.866811279  3.866811279     0.316732518  0.316732518  0.316732518

 FORCES acting on ions
    electron-ion (+dipol)            ewald-force                    non-local-force                 convergence-correction
   0.107E-04 0.107E-04 0.104E-04   -.809E-14 0.102E-13 -.650E-14   0.352E-17 0.699E-17 0.826E-17   0.701E-06 0.701E-06 0.701E-06
   -.107E-04 -.107E-04 -.104E-04   0.817E-14 -.980E-14 0.718E-14   -.989E-18 -.793E-17 -.193E-17   -.701E-06 -.701E-06 -.701E-06
   -.107E-12 -.266E-13 -.228E-13   0.814E-16 0.407E-15 0.681E-15   0.253E-17 -.935E-18 0.633E-17   -.209E-14 -.335E-14 -.177E-14

 POSITION                                       TOTAL-FORCE (eV/Angst)
      2.73425      2.73425      2.73425         0.000000     -0.000000      0.000000
      4.10137      4.10137      4.10137        -0.000000      0.000000     -0.000000
    total drift:                               -0.000000     -0.000000     -0.000000

  FREE ENERGIE OF THE ION-ELECTRON SYSTEM (eV)
  free  energy   TOTEN  =       -10.74977532 eV

  energy  without entropy=      -10.74974413  energy(sigma->0) =      -10.74975972

 d Force = 0.0000000E+00[ 0.000E+00, 0.000E+00]  d Energy = 0.2418395E-02-0.242E-02
 d Force = 0.0000000E+00[ 0.000E+00, 0.000E+00]  d Ewald  = 0.1057750E+01-0.106E+01

 reached required accuracy - stopping structural energy minimisation
 writing wavefunctions