 vasp.5.4.4.18Apr17-6-g9f103f2a35 (build Dec 09 2018 21:25:21) complex

 executed on IFC18.0.1.163_CrayMP date 2019.03.23  21:15:09

 INCAR:
 POTCAR:   PAW_PBE Si 05Jan2001

 POTCAR:   PAW_PBE Si 05Jan2001
   VRHFIN =Si: s2p2

   TITEL  = PAW_PBE Si 05Jan2001
   POMASS =   28.085; ZVAL   =    4.000    mass and valenz
   ENMAX  =  245.345; ENMIN  =  184.009 eV
   QCUT   =   -4.246; QGAM   =    8.493    optimization parameters

   Description
     l     E      TYP  RCUT    TYP  RCUT
     0   .000     23  1.900
     0   .000     23  1.900
     1   .000     23  1.900
     1   .000     23  1.900
     2   .000      7  1.900

 PAW_PBE Si 05Jan2001                   :

 POSCAR: Si2
  positions in direct lattice
 exchange correlation table for  LEXCH =        8
   RHO(1)=    0.500       N(1)  =     2000
   RHO(2)=  100.500       N(2)  =     4000

 ion  position               nearest neighbor table
   1  0.750  0.250  0.500-   2 2.52   2 2.52   2 2.52   2 2.52
   2  0.500  0.500  0.000-   1 2.52   1 2.52   1 2.52   1 2.52

  LATTYP: Found a body centered tetragonal cell.
 ALAT       =     4.8620840000
 C/A-ratio  =     0.5507683537

  Lattice vectors:

 A1 = (  -2.4310420000,   2.4310420000,   1.3389410000)
 A2 = (   2.4310420000,  -2.4310420000,   1.3389410000)
 A3 = (   2.4310420000,   2.4310420000,  -1.3389410000)

Analysis of symmetry for initial positions (statically):
 Subroutine PRICEL returns:
 Original cell was already a primitive cell.

 Routine SETGRP: Setting up the symmetry group for a
 body centered tetragonal supercell.

 Subroutine GETGRP returns: Found 16 space group operations
 (whereof  8 operations were pure point group operations)
 out of a pool of 16 trial point group operations.

The static configuration has the point symmetry D_2d.
 The point group associated with its full space group is D_4h.

Analysis of symmetry for dynamics (positions and initial velocities):
 Subroutine PRICEL returns:
 Original cell was already a primitive cell.

 Routine SETGRP: Setting up the symmetry group for a
 body centered tetragonal supercell.

 Subroutine GETGRP returns: Found 16 space group operations
 (whereof  8 operations were pure point group operations)
 out of a pool of 16 trial point group operations.

The dynamic configuration has the point symmetry D_2d.
 The point group associated with its full space group is D_4h.

 Subroutine INISYM returns: Found 16 space group operations
 (whereof  8 operations are pure point group operations),
 and found     1 'primitive' translations

 KPOINTS: Automatic kpoint scheme

Automatic generation of k-mesh.
Space group operators:
 irot       det(A)        alpha          n_x          n_y          n_z        tau_x        tau_y        tau_z
    1     1.000000     0.000000     1.000000     0.000000     0.000000     0.000000     0.000000     0.000000
    2    -1.000000    90.000000     0.000000    -0.000000    -1.000000     0.000000     0.000000     0.000000
    3     1.000000   180.000000    -0.000000     0.000000    -1.000000     0.000000     0.000000     0.000000
    4    -1.000000    90.000000     0.000000    -0.000000     1.000000     0.000000     0.000000     0.000000
    5    -1.000000   180.000000    -0.000000     1.000000     0.000000     0.000000     0.000000     0.000000
    6     1.000000   180.000000     0.707107     0.707107    -0.000000     0.000000     0.000000     0.000000
    7    -1.000000   180.000000     1.000000     0.000000     0.000000     0.000000     0.000000     0.000000
    8     1.000000   180.000000     0.707107    -0.707107    -0.000000     0.000000     0.000000     0.000000
    9    -1.000000     0.000000     1.000000     0.000000     0.000000     0.250000     0.750000     0.500000
   10     1.000000    90.000000     0.000000    -0.000000    -1.000000     0.250000     0.750000     0.500000
   11    -1.000000   180.000000    -0.000000     0.000000    -1.000000     0.250000     0.750000     0.500000
   12     1.000000    90.000000     0.000000    -0.000000     1.000000     0.250000     0.750000     0.500000
   13     1.000000   180.000000    -0.000000     1.000000     0.000000     0.250000     0.750000     0.500000
   14    -1.000000   180.000000     0.707107     0.707107    -0.000000     0.250000     0.750000     0.500000
   15     1.000000   180.000000     1.000000     0.000000     0.000000     0.250000     0.750000     0.500000
   16    -1.000000   180.000000     0.707107    -0.707107    -0.000000     0.250000     0.750000     0.500000

 Subroutine IBZKPT returns following result:

 Found     56 irreducible k-points:

 Following reciprocal coordinates:
            Coordinates               Weight
  0.062500  0.062500  0.062500    128.000000
  0.187500  0.062500  0.062500    256.000000
  0.312500  0.062500  0.062500    256.000000
  0.437500  0.062500  0.062500    128.000000
 -0.062500  0.062500  0.062500     64.000000
  0.187500  0.187500  0.062500    128.000000
  0.312500  0.187500  0.062500    256.000000
  0.437500  0.187500  0.062500    256.000000
 -0.437500  0.187500  0.062500    256.000000
 -0.312500  0.187500  0.062500    128.000000
 -0.187500  0.187500  0.062500    128.000000
 -0.062500  0.187500  0.062500    128.000000
  0.312500  0.312500  0.062500    128.000000
  0.437500  0.312500  0.062500    256.000000
 -0.437500  0.312500  0.062500    128.000000
 -0.312500  0.312500  0.062500    128.000000
 -0.187500  0.312500  0.062500    256.000000
 -0.062500  0.312500  0.062500    128.000000
  0.437500  0.437500  0.062500     64.000000
 -0.437500  0.437500  0.062500    128.000000
 -0.312500  0.437500  0.062500    256.000000
 -0.187500  0.437500  0.062500    256.000000
 -0.062500  0.437500  0.062500    128.000000
 -0.437500 -0.437500  0.062500    128.000000
 -0.312500 -0.437500  0.062500    256.000000
 -0.187500 -0.437500  0.062500    256.000000
 -0.062500 -0.437500  0.062500    128.000000
 -0.312500 -0.312500  0.062500    128.000000
 -0.187500 -0.312500  0.062500    256.000000
 -0.062500 -0.312500  0.062500    128.000000
 -0.187500 -0.187500  0.062500    128.000000
 -0.062500 -0.187500  0.062500    128.000000
 -0.062500 -0.062500  0.062500     32.000000
  0.187500  0.187500  0.187500    128.000000
  0.312500  0.187500  0.187500    128.000000
 -0.187500  0.187500  0.187500     64.000000
  0.312500  0.312500  0.187500     64.000000
 -0.312500  0.312500  0.187500    128.000000
 -0.187500  0.312500  0.187500    128.000000
 -0.437500  0.437500  0.187500    128.000000
 -0.312500  0.437500  0.187500    256.000000
 -0.187500  0.437500  0.187500    128.000000
 -0.437500 -0.437500  0.187500    128.000000
 -0.312500 -0.437500  0.187500    256.000000
 -0.187500 -0.437500  0.187500    128.000000
 -0.312500 -0.312500  0.187500    128.000000
 -0.187500 -0.312500  0.187500    128.000000
 -0.187500 -0.187500  0.187500     32.000000
 -0.312500  0.312500  0.312500     64.000000
 -0.437500  0.437500  0.312500    128.000000
 -0.312500  0.437500  0.312500    128.000000
 -0.437500 -0.437500  0.312500    128.000000
 -0.312500 -0.437500  0.312500    128.000000
 -0.312500 -0.312500  0.312500     32.000000
 -0.437500  0.437500  0.437500     64.000000
 -0.437500 -0.437500  0.437500     32.000000

 Following cartesian coordinates:
            Coordinates               Weight
  0.025709  0.025709  0.046679    128.000000
  0.025709  0.051418  0.093357    256.000000
  0.025709  0.077127  0.140036    256.000000
  0.025709  0.102837  0.186715    128.000000
  0.025709  0.000000  0.000000     64.000000
  0.051418  0.051418  0.140036    128.000000
  0.051418  0.077127  0.186715    256.000000
  0.051418  0.102837  0.233393    256.000000
  0.051418 -0.077127 -0.093357    256.000000
  0.051418 -0.051418 -0.046679    128.000000
  0.051418 -0.025709  0.000000    128.000000
  0.051418  0.000000  0.046679    128.000000
  0.077127  0.077127  0.233393    128.000000
  0.077127  0.102837  0.280072    256.000000
  0.077127 -0.077127 -0.046679    128.000000
  0.077127 -0.051418  0.000000    128.000000
  0.077127 -0.025709  0.046679    256.000000
  0.077127  0.000000  0.093357    128.000000
  0.102837  0.102837  0.326751     64.000000
  0.102837 -0.077127  0.000000    128.000000
  0.102837 -0.051418  0.046679    256.000000
  0.102837 -0.025709  0.093357    256.000000
  0.102837  0.000000  0.140036    128.000000
 -0.077127 -0.077127 -0.326751    128.000000
 -0.077127 -0.051418 -0.280072    256.000000
 -0.077127 -0.025709 -0.233393    256.000000
 -0.077127 -0.000000 -0.186715    128.000000
 -0.051418 -0.051418 -0.233393    128.000000
 -0.051418 -0.025709 -0.186715    256.000000
 -0.051418  0.000000 -0.140036    128.000000
 -0.025709 -0.025709 -0.140036    128.000000
 -0.025709  0.000000 -0.093357    128.000000
 -0.000000  0.000000 -0.046679     32.000000
  0.077127  0.077127  0.140036    128.000000
  0.077127  0.102837  0.186715    128.000000
  0.077127 -0.000000  0.000000     64.000000
  0.102837  0.102837  0.233393     64.000000
  0.102837 -0.025709  0.000000    128.000000
  0.102837  0.000000  0.046679    128.000000
  0.128546 -0.051418  0.000000    128.000000
  0.128546 -0.025709  0.046679    256.000000
  0.128546  0.000000  0.093357    128.000000
 -0.051418 -0.051418 -0.326751    128.000000
 -0.051418 -0.025709 -0.280072    256.000000
 -0.051418  0.000000 -0.233393    128.000000
 -0.025709 -0.025709 -0.233393    128.000000
 -0.025709 -0.000000 -0.186715    128.000000
  0.000000  0.000000 -0.140036     32.000000
  0.128546  0.000000  0.000000     64.000000
  0.154255 -0.025709  0.000000    128.000000
  0.154255  0.000000  0.046679    128.000000
 -0.025709 -0.025709 -0.326751    128.000000
 -0.025709  0.000000 -0.280072    128.000000
 -0.000000  0.000000 -0.233393     32.000000
  0.179964  0.000000  0.000000     64.000000
 -0.000000  0.000000 -0.326751     32.000000

 SYSTEM =  unknown system
 POSCAR =  Si2

 Startparameter for this run:
   NWRITE =      2    write-flag & timer
   PREC   = normal    normal or accurate (medium, high low for compatibility)
   ISTART =      0    job   : 0-new  1-cont  2-samecut
   ICHARG =      2    charge: 1-file 2-atom 10-const
   ISPIN  =      1    spin polarized calculation?
   LNONCOLLINEAR =      F non collinear calculations
   LSORBIT =      F    spin-orbit coupling
   INIWAV =      1    electr: 0-lowe 1-rand  2-diag
   LASPH  =      F    aspherical Exc in radial PAW
   METAGGA=      F    non-selfconsistent MetaGGA calc.

 Electronic Relaxation 1
   ENCUT  =  350.0 eV  25.72 Ry    5.07 a.u.   5.63  5.63  5.63*2*pi/ulx,y,z
   ENINI  =  350.0     initial cutoff
   ENAUG  =  322.1 eV  augmentation charge cutoff
   NELM   =     60;   NELMIN=  2; NELMDL= -5     # of ELM steps
   EDIFF  = 0.4E-03   stopping-criterion for ELM
   LREAL  =      F    real-space projection
   NLSPLINE    = F    spline interpolate recip. space projectors
   LCOMPAT=      F    compatible to vasp.4.4
   GGA_COMPAT  = T    GGA compatible to vasp.4.4-vasp.4.6
   LMAXPAW     = -100 max onsite density
   LMAXMIX     =    2 max onsite mixed and CHGCAR
   VOSKOWN=      0    Vosko Wilk Nusair interpolation
   ROPT   =    0.00000
 Ionic relaxation
   EDIFFG = -.1E-01   stopping-criterion for IOM
   NSW    =     15    number of steps for IOM
[...]
   0.02570914  0.10283656  0.18671472       0.016
   0.02570914 -0.00000000  0.00000000       0.008
   0.05141828  0.05141828  0.14003604       0.016
   0.05141828  0.07712742  0.18671472       0.031
   0.05141828  0.10283656  0.23339341       0.031
   0.05141828 -0.07712742 -0.09335736       0.031
   0.05141828 -0.05141828 -0.04667868       0.016
   0.05141828 -0.02570914  0.00000000       0.016
   0.05141828 -0.00000000  0.04667868       0.016
   0.07712742  0.07712742  0.23339341       0.016
   0.07712742  0.10283656  0.28007209       0.031
   0.07712742 -0.07712742 -0.04667868       0.016
   0.07712742 -0.05141828 -0.00000000       0.016
   0.07712742 -0.02570914  0.04667868       0.031
   0.07712742  0.00000000  0.09335736       0.016
   0.10283656  0.10283656  0.32675077       0.008
   0.10283656 -0.07712742 -0.00000000       0.016
   0.10283656 -0.05141828  0.04667868       0.031
   0.10283656 -0.02570914  0.09335736       0.031
   0.10283656  0.00000000  0.14003604       0.016
  -0.07712742 -0.07712742 -0.32675077       0.016
  -0.07712742 -0.05141828 -0.28007209       0.031
  -0.07712742 -0.02570914 -0.23339341       0.031
  -0.07712742 -0.00000000 -0.18671472       0.016
  -0.05141828 -0.05141828 -0.23339341       0.016
  -0.05141828 -0.02570914 -0.18671472       0.031
  -0.05141828 -0.00000000 -0.14003604       0.016
  -0.02570914 -0.02570914 -0.14003604       0.016
  -0.02570914  0.00000000 -0.09335736       0.016
   0.00000000  0.00000000 -0.04667868       0.004
   0.07712742  0.07712742  0.14003604       0.016
   0.07712742  0.10283656  0.18671472       0.016
   0.07712742 -0.00000000  0.00000000       0.008
   0.10283656  0.10283656  0.23339341       0.008
   0.10283656 -0.02570914 -0.00000000       0.016
   0.10283656 -0.00000000  0.04667868       0.016
   0.12854570 -0.05141828  0.00000000       0.016
   0.12854570 -0.02570914  0.04667868       0.031
   0.12854570 -0.00000000  0.09335736       0.016
  -0.05141828 -0.05141828 -0.32675077       0.016
  -0.05141828 -0.02570914 -0.28007209       0.031
  -0.05141828  0.00000000 -0.23339341       0.016
  -0.02570914 -0.02570914 -0.23339341       0.016
  -0.02570914 -0.00000000 -0.18671472       0.016
  -0.00000000 -0.00000000 -0.14003604       0.004
   0.12854570 -0.00000000  0.00000000       0.008
   0.15425484 -0.02570914  0.00000000       0.016
   0.15425484  0.00000000  0.04667868       0.016
  -0.02570914 -0.02570914 -0.32675077       0.016
  -0.02570914  0.00000000 -0.28007209       0.016
   0.00000000  0.00000000 -0.23339341       0.004
   0.17996398  0.00000000  0.00000000       0.008
   0.00000000  0.00000000 -0.32675077       0.004

 k-points in reciprocal lattice and weights: Automatic kpoint scheme
   0.06250000  0.06250000  0.06250000       0.016
   0.18750000  0.06250000  0.06250000       0.031
   0.31250000  0.06250000  0.06250000       0.031
   0.43750000  0.06250000  0.06250000       0.016
  -0.06250000  0.06250000  0.06250000       0.008
   0.18750000  0.18750000  0.06250000       0.016
   0.31250000  0.18750000  0.06250000       0.031
   0.43750000  0.18750000  0.06250000       0.031
  -0.43750000  0.18750000  0.06250000       0.031
  -0.31250000  0.18750000  0.06250000       0.016
  -0.18750000  0.18750000  0.06250000       0.016
  -0.06250000  0.18750000  0.06250000       0.016
   0.31250000  0.31250000  0.06250000       0.016
   0.43750000  0.31250000  0.06250000       0.031
  -0.43750000  0.31250000  0.06250000       0.016
  -0.31250000  0.31250000  0.06250000       0.016
  -0.18750000  0.31250000  0.06250000       0.031
  -0.06250000  0.31250000  0.06250000       0.016
   0.43750000  0.43750000  0.06250000       0.008
  -0.43750000  0.43750000  0.06250000       0.016
  -0.31250000  0.43750000  0.06250000       0.031
  -0.18750000  0.43750000  0.06250000       0.031
  -0.06250000  0.43750000  0.06250000       0.016
  -0.43750000 -0.43750000  0.06250000       0.016
  -0.31250000 -0.43750000  0.06250000       0.031
  -0.18750000 -0.43750000  0.06250000       0.031
  -0.06250000 -0.43750000  0.06250000       0.016
  -0.31250000 -0.31250000  0.06250000       0.016
  -0.18750000 -0.31250000  0.06250000       0.031
  -0.06250000 -0.31250000  0.06250000       0.016
  -0.18750000 -0.18750000  0.06250000       0.016
  -0.06250000 -0.18750000  0.06250000       0.016
  -0.06250000 -0.06250000  0.06250000       0.004
   0.18750000  0.18750000  0.18750000       0.016
   0.31250000  0.18750000  0.18750000       0.016
  -0.18750000  0.18750000  0.18750000       0.008
   0.31250000  0.31250000  0.18750000       0.008
  -0.31250000  0.31250000  0.18750000       0.016
  -0.18750000  0.31250000  0.18750000       0.016
  -0.43750000  0.43750000  0.18750000       0.016
  -0.31250000  0.43750000  0.18750000       0.031
  -0.18750000  0.43750000  0.18750000       0.016
  -0.43750000 -0.43750000  0.18750000       0.016
  -0.31250000 -0.43750000  0.18750000       0.031
  -0.18750000 -0.43750000  0.18750000       0.016
  -0.31250000 -0.31250000  0.18750000       0.016
  -0.18750000 -0.31250000  0.18750000       0.016
  -0.18750000 -0.18750000  0.18750000       0.004
  -0.31250000  0.31250000  0.31250000       0.008
  -0.43750000  0.43750000  0.31250000       0.016
  -0.31250000  0.43750000  0.31250000       0.016
  -0.43750000 -0.43750000  0.31250000       0.016
  -0.31250000 -0.43750000  0.31250000       0.016
  -0.31250000 -0.31250000  0.31250000       0.004
  -0.43750000  0.43750000  0.43750000       0.008
  -0.43750000 -0.43750000  0.43750000       0.004

 position of ions in fractional coordinates (direct lattice)
   0.75000000  0.25000000  0.50000000
   0.50000000  0.50000000  0.00000000

 position of ions in cartesian coordinates  (Angst):
   0.00000000  2.43104200  0.66947050
   0.00000000  0.00000000  1.33894100

 k-point  1 :   0.0625 0.0625 0.0625  plane waves:     476
 k-point  2 :   0.1875 0.0625 0.0625  plane waves:     477
 k-point  3 :   0.3125 0.0625 0.0625  plane waves:     475
 k-point  4 :   0.4375 0.0625 0.0625  plane waves:     476
 k-point  5 :  -0.0625 0.0625 0.0625  plane waves:     475
 k-point  6 :   0.1875 0.1875 0.0625  plane waves:     478
 k-point  7 :   0.3125 0.1875 0.0625  plane waves:     476
 k-point  8 :   0.4375 0.1875 0.0625  plane waves:     477
 k-point  9 :  -0.4375 0.1875 0.0625  plane waves:     472
 k-point 10 :  -0.3125 0.1875 0.0625  plane waves:     475
 k-point 11 :  -0.1875 0.1875 0.0625  plane waves:     467
 k-point 12 :  -0.0625 0.1875 0.0625  plane waves:     475
 k-point 13 :   0.3125 0.3125 0.0625  plane waves:     470
 k-point 14 :   0.4375 0.3125 0.0625  plane waves:     470
 k-point 15 :  -0.4375 0.3125 0.0625  plane waves:     465
 k-point 16 :  -0.3125 0.3125 0.0625  plane waves:     470
 k-point 17 :  -0.1875 0.3125 0.0625  plane waves:     466
 k-point 18 :  -0.0625 0.3125 0.0625  plane waves:     475
 k-point 19 :   0.4375 0.4375 0.0625  plane waves:     470
 k-point 20 :  -0.4375 0.4375 0.0625  plane waves:     461
 k-point 21 :  -0.3125 0.4375 0.0625  plane waves:     465
 k-point 22 :  -0.1875 0.4375 0.0625  plane waves:     470
 k-point 23 :  -0.0625 0.4375 0.0625  plane waves:     475
 k-point 24 :  -0.4375-0.4375 0.0625  plane waves:     467
 k-point 25 :  -0.3125-0.4375 0.0625  plane waves:     470
 k-point 26 :  -0.1875-0.4375 0.0625  plane waves:     475
 k-point 27 :  -0.0625-0.4375 0.0625  plane waves:     466
 k-point 28 :  -0.3125-0.3125 0.0625  plane waves:     470
 k-point 29 :  -0.1875-0.3125 0.0625  plane waves:     473
 k-point 30 :  -0.0625-0.3125 0.0625  plane waves:     476
 k-point 31 :  -0.1875-0.1875 0.0625  plane waves:     480
 k-point 32 :  -0.0625-0.1875 0.0625  plane waves:     477
 k-point 33 :  -0.0625-0.0625 0.0625  plane waves:     472
 k-point 34 :   0.1875 0.1875 0.1875  plane waves:     477
 k-point 35 :   0.3125 0.1875 0.1875  plane waves:     478
 k-point 36 :  -0.1875 0.1875 0.1875  plane waves:     469
 k-point 37 :   0.3125 0.3125 0.1875  plane waves:     466
 k-point 38 :  -0.3125 0.3125 0.1875  plane waves:     464
 k-point 39 :  -0.1875 0.3125 0.1875  plane waves:     466
 k-point 40 :  -0.4375 0.4375 0.1875  plane waves:     468
 k-point 41 :  -0.3125 0.4375 0.1875  plane waves:     465
 k-point 42 :  -0.1875 0.4375 0.1875  plane waves:     474
 k-point 43 :  -0.4375-0.4375 0.1875  plane waves:     454
 k-point 44 :  -0.3125-0.4375 0.1875  plane waves:     468
 k-point 45 :  -0.1875-0.4375 0.1875  plane waves:     464
 k-point 46 :  -0.3125-0.3125 0.1875  plane waves:     469
 k-point 47 :  -0.1875-0.3125 0.1875  plane waves:     471
 k-point 48 :  -0.1875-0.1875 0.1875  plane waves:     488
 k-point 49 :  -0.3125 0.3125 0.3125  plane waves:     466
 k-point 50 :  -0.4375 0.4375 0.3125  plane waves:     467
 k-point 51 :  -0.3125 0.4375 0.3125  plane waves:     468
 k-point 52 :  -0.4375-0.4375 0.3125  plane waves:     472
 k-point 53 :  -0.3125-0.4375 0.3125  plane waves:     471
 k-point 54 :  -0.3125-0.3125 0.3125  plane waves:     464
 k-point 55 :  -0.4375 0.4375 0.4375  plane waves:     468
 k-point 56 :  -0.4375-0.4375 0.4375  plane waves:     480

 maximum and minimum number of plane-waves per node :       488      454

 maximum number of plane-waves:       488
 maximum index in each direction:
   IXMAX=    6   IYMAX=    6   IZMAX=    5
   IXMIN=   -6   IYMIN=   -6   IZMIN=   -6

 serial   3D FFT for wavefunctions
 parallel 3D FFT for charge:
    minimum data exchange during FFTs selected (reduces bandwidth)

 Broyden mixing: mesh for mixing (old mesh)
   NGX = 11   NGY = 11   NGZ = 11
  (NGX  = 36   NGY  = 36   NGZ  = 36)
  gives a total of   1331 points

 initial charge density was supplied:
 charge density of overlapping atoms calculated
 number of electron       8.0000000 magnetization
 keeping initial charge density in first step

 Maximum index for augmentation-charges          875 (set IRDMAX)

 First call to EWALD:  gamma=   0.560
 Maximum number of real-space cells 4x 4x 3
 Maximum number of reciprocal cells 3x 3x 3

--------------------------------------- Iteration      1(   1)  ---------------------------------------

 eigenvalue-minimisations  :   896
 total energy-change (2. order) : 0.1343808E+01  (-0.2665629E+03)
 number of electron       8.0000000 magnetization
 augmentation part        8.0000000 magnetization

 Free energy of the ion-electron system (eV)
  alpha Z        PSCENC =         4.25409774
  Ewald energy   TEWEN  =      -262.28548134
  -Hartree energ DENC   =        -2.45078079
  -exchange      EXHF   =         0.00000000
  -V(xc)+E(xc)   XCENC  =       -17.99022212
  PAW double counting   =        65.95520812      -30.76852678
  entropy T*S    EENTRO =        -0.00926461
  eigenvalues    EBANDS =        38.50752325
  atomic energy  EATOM  =       206.13125414
  Solvation  Ediel_sol  =         0.00000000
  free energy    TOTEN  =         1.34380761 eV

  energy without entropy =        1.35307222  energy(sigma->0) =        1.34843991

[...]

 eigenvalue-minimisations  :  1336
 total energy-change (2. order) :-0.1148211E+02  (-0.1110321E+02)
 number of electron       8.0000000 magnetization
 augmentation part        8.0000000 magnetization

[...]

 eigenvalue-minimisations  :  1216
 total energy-change (2. order) :-0.4622993E-06  (-0.4631545E-06)
 number of electron       7.9999994 magnetization
 augmentation part       -0.4700658 magnetization

 Broyden mixing:
  rms(total) = 0.15363E+00    rms(broyden)= 0.15362E+00
  rms(prec ) = 0.35148E+00
  weight for this iteration     100.00

[...]

 eigenvalues of (default mixing * dielectric matrix)
  average eigenvalue GAMMA=   2.6328
  2.6328

[...]

 Broyden mixing:
  rms(total) = 0.50341E-02    rms(broyden)= 0.50338E-02
  rms(prec ) = 0.14532E-01
  weight for this iteration     100.00

 eigenvalues of (default mixing * dielectric matrix)
  average eigenvalue GAMMA=   2.5646
  2.5646  2.5646

[...]

--------------------------------------- Iteration      1(   8)  ---------------------------------------

 eigenvalue-minimisations  :   600
 total energy-change (2. order) : 0.5115287E-04  (-0.3795355E-04)
 number of electron       7.9999994 magnetization
 augmentation part       -0.4749273 magnetization

 Free energy of the ion-electron system (eV)
  alpha Z        PSCENC =         4.25409774
  Ewald energy   TEWEN  =      -262.28548134
  -Hartree energ DENC   =        -2.61042389
  -exchange      EXHF   =         0.00000000
  -V(xc)+E(xc)   XCENC  =       -17.77447180
  PAW double counting   =        69.49349167      -34.38662145
  entropy T*S    EENTRO =        -0.02034707
  eigenvalues    EBANDS =        26.94195281
  atomic energy  EATOM  =       206.13125414
  Solvation  Ediel_sol  =         0.00000000
  free energy    TOTEN  =       -10.25654918 eV

  energy without entropy =      -10.23620211  energy(sigma->0) =      -10.24637565

 average (electrostatic) potential at core
  the test charge radii are     0.9892
  (the norm of the test charge is              1.0000)
       1 -80.9919       2 -80.9919

 E-fermi :   8.6624     XC(G=0): -10.7568     alpha+bet :-15.1549

 k-point     1 :       0.0625    0.0625    0.0625
  band No.  band energies     occupation
      1      -4.2308      2.00000
      2       4.4158      2.00000
      3       6.6812      2.00000
      4       8.2008      1.99890
      5      11.8372      0.00000
      6      13.6896      0.00000
      7      14.2566      0.00000
      8      16.1213      0.00000

[...]

 k-point    56 :      -0.4375   -0.4375    0.4375
  band No.  band energies     occupation
      1       0.7774      2.00000
      2       0.8170      2.00000
      3       2.4515      2.00000
      4       2.4515      2.00000
      5      10.2357      0.00000
      6      18.2267      0.00000
      7      20.1644      0.00000
      8      20.2034      0.00000

 soft charge-density along one line, spin component           1
         0         1         2         3         4         5         6         7         8         9
 total charge-density along one line

------------------------ aborting loop because EDIFF is reached ----------------------------------------

  FORCE on cell =-STRESS in cart. coord.  units (eV):
  Direction    XX          YY          ZZ          XY          YZ          ZX
  Alpha Z     4.25410     4.25410     4.25410
  Ewald     -86.83972   -86.83972   -88.60626    -0.00000     0.00000    -0.00000
  Hartree     0.82428     0.82428     0.96602    -0.00000    -0.00000    -0.00000
  E(xc)     -25.22663   -25.22663   -25.09076    -0.00000     0.00000     0.00000
  Local     -14.91713   -14.91713   -11.34290    -0.00002    -0.00002    -0.00002
  n-local    77.18416    77.29036    74.89598     1.19223    -0.38808    -0.48527
  augment   -12.14803   -12.14803   -11.98765     0.00002     0.00002     0.00002
  Kinetic    54.44021    57.34556    56.92750     2.55929    -1.81144    -1.62976
  Fock        0.00000     0.00000     0.00000     0.00000     0.00000     0.00000
  Total      -0.92298    -0.92298     0.01602     0.00000     0.00000     0.00000
  in kB     -46.71921   -46.71921     0.81077     0.00000     0.00000     0.00000

 VOLUME and BASIS-vectors are now :
  energy-cutoff  :      350.00
  volume of cell :       31.65
      direct lattice vectors                 reciprocal lattice vectors
    -2.431042000  2.431042000  1.338941000     0.000000000  0.205673123  0.373429449
     2.431042000 -2.431042000  1.338941000     0.205673123  0.000000000  0.373429449
     2.431042000  2.431042000 -1.338941000     0.205673123  0.205673123 -0.000000000

  length of vectors
     3.689538374  3.689538374  3.689538374     0.426322632  0.426322632  0.290865720

 FORCES acting on ions
    electron-ion (+dipol)            ewald-force                    non-local-force                 convergence-correction
   -.171E-06 0.171E-06 0.128E-13   -.187E-13 0.346E-14 -.488E-14   0.932E-16 -.733E-16 -.117E-16   -.281E-08 0.281E-08 0.183E-15
   0.171E-06 -.171E-06 -.459E-13   0.186E-13 -.341E-14 0.547E-14   -.114E-15 0.875E-16 0.306E-16   0.281E-08 -.281E-08 0.160E-15
   -.203E-13 0.201E-13 -.332E-13   -.591E-16 0.528E-16 0.591E-15   -.205E-16 0.142E-16 0.188E-16   0.156E-15 -.253E-16 0.343E-15

 POSITION                                       TOTAL-FORCE (eV/Angst)
      0.00000      2.43104      0.66947         0.000000      0.000000     -0.000000
      0.00000      0.00000      1.33894        -0.000000     -0.000000      0.000000
    total drift:                               -0.000000      0.000000     -0.000000

  FREE ENERGIE OF THE ION-ELECTRON SYSTEM (eV)
  free  energy   TOTEN  =       -10.25654918 eV

  energy  without entropy=      -10.23620211  energy(sigma->0) =      -10.24637565

 reached required accuracy - stopping structural energy minimisation
 writing wavefunctions