 vasp.5.4.4.18Apr17-6-g9f103f2a35 (build Dec 09 2018 21:25:21) complex

 executed on IFC18.0.1.163_CrayMP date 2019.03.16  08:01:34

 INCAR:
 POTCAR:   PAW_PBE Si 05Jan2001

 POTCAR:   PAW_PBE Si 05Jan2001
   VRHFIN =Si: s2p2

   TITEL  = PAW_PBE Si 05Jan2001
   POMASS =   28.085; ZVAL   =    4.000    mass and valenz
   ENMAX  =  245.345; ENMIN  =  184.009 eV
   QCUT   =   -4.246; QGAM   =    8.493    optimization parameters

   Description
     l     E      TYP  RCUT    TYP  RCUT
     0   .000     23  1.900
     0   .000     23  1.900
     1   .000     23  1.900
     1   .000     23  1.900
     2   .000      7  1.900

 Optimization of the real space projectors (new method)

 maximal supplied QI-value         = 19.84
 optimisation between [QCUT,QGAM] = [  6.15, 12.50] = [ 10.60, 43.76] Ry
 Optimized for a Real-space Cutoff    2.39 Angstroem

   l    n(q)    QCUT    max X(q) W(low)/X(q) W(high)/X(q)  e(spline)
   0      9     6.151     8.708    0.23E-04    0.24E-04    0.58E-07
   0      9     6.151   106.241    0.10E-03    0.95E-05    0.54E-06
   1      8     6.151     5.901    0.15E-04    0.43E-05    0.20E-06
   1      8     6.151    65.711    0.17E-03    0.54E-03    0.90E-06
 PAW_PBE Si 05Jan2001                   :

 POSCAR: Si8
  positions in direct lattice
 exchange correlation table for  LEXCH =        8
   RHO(1)=    0.500       N(1)  =     2000
   RHO(2)=  100.500       N(2)  =     4000

 ion  position               nearest neighbor table
   1  0.000  0.000  0.000-   2 2.35   4 2.35   6 2.35   8 2.35
   2  0.250  0.250  0.250-   1 2.35   3 2.35   5 2.35   7 2.35
   3  0.500  0.500  0.000-   2 2.35   4 2.35   6 2.35   8 2.35
   4  0.250  0.750  0.750-   1 2.35   3 2.35   5 2.35   7 2.35
   5  0.500  0.000  0.500-   2 2.35   4 2.35   6 2.35   8 2.35
   6  0.750  0.250  0.750-   1 2.35   3 2.35   5 2.35   7 2.35
   7  0.000  0.500  0.500-   2 2.35   4 2.35   6 2.35   8 2.35
   8  0.750  0.750  0.250-   1 2.35   3 2.35   5 2.35   7 2.35

  LATTYP: Found a simple cubic cell.
 ALAT       =     5.4300000000

  Lattice vectors:

 A1 = (   5.4300000000,   0.0000000000,   0.0000000000)
 A2 = (   0.0000000000,   5.4300000000,   0.0000000000)
 A3 = (   0.0000000000,   0.0000000000,   5.4300000000)

Analysis of symmetry for initial positions (statically):
 Subroutine PRICEL returns following result:

  LATTYP: Found a face centered cubic cell.
 ALAT       =     5.4300000000

[...]

   4 primitive cells build up your supercell.

 Routine SETGRP: Setting up the symmetry group for a
 simple cubic supercell.

 Subroutine GETGRP returns: Found 48 space group operations
 (whereof 24 operations were pure point group operations)
 out of a pool of 48 trial point group operations.

The static configuration has the point symmetry T_d .
 The point group associated with its full space group is O_h .

Analysis of symmetry for dynamics (positions and initial velocities):
 Subroutine PRICEL returns following result:

[...]

The dynamic configuration has the point symmetry T_d .
 The point group associated with its full space group is O_h .

Analysis of structural, dynamic, and magnetic symmetry:
 Subroutine PRICEL returns following result:

  LATTYP: Found a face centered cubic cell.
 ALAT       =     5.4300000000

  Lattice vectors:

 A1 = (   2.7150000000,   2.7150000000,   0.0000000000)
 A2 = (   2.7150000000,   0.0000000000,  -2.7150000000)
 A3 = (   0.0000000000,   2.7150000000,  -2.7150000000)

   4 primitive cells build up your supercell.

 Routine SETGRP: Setting up the symmetry group for a
 simple cubic supercell.

 Subroutine GETGRP returns: Found 48 space group operations
 (whereof 24 operations were pure point group operations)
 out of a pool of 48 trial point group operations.

The magnetic configuration has the point symmetry T_d .
 The point group associated with its full space group is O_h .

 Subroutine INISYM returns: Found 48 space group operations
 (whereof 24 operations are pure point group operations),
 and found     4 'primitive' translations

 KPOINTS: Automatic kpoint scheme

Automatic generation of k-mesh.
Space group operators:
 irot       det(A)        alpha          n_x          n_y          n_z        tau_x        tau_y        tau_z
    1     1.000000     0.000001     1.000000     0.000000     0.000000     0.000000     0.000000     0.000000
    2     1.000000   120.000000    -0.577350    -0.577350    -0.577350     0.000000     0.000000     0.000000
    3     1.000000   120.000000     0.577350     0.577350     0.577350     0.000000     0.000000     0.000000
    4    -1.000000    90.000000     0.000000     0.000000    -1.000000     0.000000     0.000000     0.000000
    5    -1.000000   180.000000     0.000000     0.707107     0.707107     0.000000     0.000000     0.000000
    6    -1.000000    90.000000     0.000000     1.000000     0.000000     0.000000     0.000000     0.000000
    7     1.000000   180.000000     0.000000     0.000000     1.000000     0.000000     0.000000     0.000000
    8     1.000000   120.000000    -0.577350     0.577350     0.577350     0.000000     0.000000     0.000000
    9     1.000000   120.000000    -0.577350     0.577350    -0.577350     0.000000     0.000000     0.000000
   10    -1.000000    90.000000     0.000000     0.000000     1.000000     0.000000     0.000000     0.000000
   11    -1.000000    90.000000    -1.000000     0.000000     0.000000     0.000000     0.000000     0.000000
   12    -1.000000   180.000000     0.707107     0.000000     0.707107     0.000000     0.000000     0.000000
   13     1.000000   120.000000     0.577350    -0.577350     0.577350     0.000000     0.000000     0.000000
   14     1.000000   120.000000    -0.577350    -0.577350     0.577350     0.000000     0.000000     0.000000
   15     1.000000   180.000000     1.000000     0.000000     0.000000     0.000000     0.000000     0.000000
   16    -1.000000    90.000000     0.000000    -1.000000     0.000000     0.000000     0.000000     0.000000
   17    -1.000000   180.000000     0.707107     0.707107     0.000000     0.000000     0.000000     0.000000
   18    -1.000000    90.000000     1.000000     0.000000     0.000000     0.000000     0.000000     0.000000
   19     1.000000   120.000000     0.577350    -0.577350    -0.577350     0.000000     0.000000     0.000000
   20     1.000000   180.000000     0.000000     1.000000     0.000000     0.000000     0.000000     0.000000
   21     1.000000   120.000000     0.577350     0.577350    -0.577350     0.000000     0.000000     0.000000
   22    -1.000000   180.000000     0.000000    -0.707107     0.707107     0.000000     0.000000     0.000000
   23    -1.000000   180.000000     0.707107    -0.707107     0.000000     0.000000     0.000000     0.000000
   24    -1.000000   180.000000     0.707107     0.000000    -0.707107     0.000000     0.000000     0.000000
   25    -1.000000     0.000001     1.000000     0.000000     0.000000     0.750000     0.750000    -0.750000
   26    -1.000000   120.000000    -0.577350    -0.577350    -0.577350     0.750000     0.750000    -0.750000
   27    -1.000000   120.000000     0.577350     0.577350     0.577350     0.750000     0.750000    -0.750000
   28     1.000000    90.000000     0.000000     0.000000    -1.000000     0.750000     0.750000    -0.750000
   29     1.000000   180.000000     0.000000     0.707107     0.707107     0.750000     0.750000    -0.750000
   30     1.000000    90.000000     0.000000     1.000000     0.000000     0.750000     0.750000    -0.750000
   31    -1.000000   180.000000     0.000000     0.000000     1.000000     0.750000     0.750000    -0.750000
   32    -1.000000   120.000000    -0.577350     0.577350     0.577350     0.750000     0.750000    -0.750000
   33    -1.000000   120.000000    -0.577350     0.577350    -0.577350     0.750000     0.750000    -0.750000
   34     1.000000    90.000000     0.000000     0.000000     1.000000     0.750000     0.750000    -0.750000
   35     1.000000    90.000000    -1.000000     0.000000     0.000000     0.750000     0.750000    -0.750000
   36     1.000000   180.000000     0.707107     0.000000     0.707107     0.750000     0.750000    -0.750000
   37    -1.000000   120.000000     0.577350    -0.577350     0.577350     0.750000     0.750000    -0.750000
   38    -1.000000   120.000000    -0.577350    -0.577350     0.577350     0.750000     0.750000    -0.750000
   39    -1.000000   180.000000     1.000000     0.000000     0.000000     0.750000     0.750000    -0.750000
   40     1.000000    90.000000     0.000000    -1.000000     0.000000     0.750000     0.750000    -0.750000
   41     1.000000   180.000000     0.707107     0.707107     0.000000     0.750000     0.750000    -0.750000
   42     1.000000    90.000000     1.000000     0.000000     0.000000     0.750000     0.750000    -0.750000
   43    -1.000000   120.000000     0.577350    -0.577350    -0.577350     0.750000     0.750000    -0.750000
   44    -1.000000   180.000000     0.000000     1.000000     0.000000     0.750000     0.750000    -0.750000
   45    -1.000000   120.000000     0.577350     0.577350    -0.577350     0.750000     0.750000    -0.750000
   46     1.000000   180.000000     0.000000    -0.707107     0.707107     0.750000     0.750000    -0.750000
   47     1.000000   180.000000     0.707107    -0.707107     0.000000     0.750000     0.750000    -0.750000
   48     1.000000   180.000000     0.707107     0.000000    -0.707107     0.750000     0.750000    -0.750000

 Subroutine IBZKPT returns following result:

 Found     56 irreducible k-points:

 Following reciprocal coordinates:
            Coordinates               Weight
  0.000000  0.000000  0.000000      1.000000
  0.090909  0.000000  0.000000      6.000000
  0.181818  0.000000  0.000000      6.000000
  0.272727  0.000000  0.000000      6.000000
  0.363636  0.000000  0.000000      6.000000
  0.454545  0.000000  0.000000      6.000000
  0.090909  0.090909  0.000000     12.000000
  0.181818  0.090909  0.000000     24.000000
  0.272727  0.090909  0.000000     24.000000
  0.363636  0.090909  0.000000     24.000000
  0.454545  0.090909  0.000000     24.000000
  0.181818  0.181818  0.000000     12.000000
  0.272727  0.181818  0.000000     24.000000
  0.363636  0.181818  0.000000     24.000000
  0.454545  0.181818  0.000000     24.000000
  0.272727  0.272727  0.000000     12.000000
  0.363636  0.272727  0.000000     24.000000
  0.454545  0.272727  0.000000     24.000000
  0.363636  0.363636  0.000000     12.000000
  0.454545  0.363636  0.000000     24.000000
  0.454545  0.454545  0.000000     12.000000
  0.090909  0.090909  0.090909      8.000000
  0.181818  0.090909  0.090909     24.000000
  0.272727  0.090909  0.090909     24.000000
  0.363636  0.090909  0.090909     24.000000
  0.454545  0.090909  0.090909     24.000000
  0.181818  0.181818  0.090909     24.000000
  0.272727  0.181818  0.090909     48.000000
  0.363636  0.181818  0.090909     48.000000
  0.454545  0.181818  0.090909     48.000000
  0.272727  0.272727  0.090909     24.000000
  0.363636  0.272727  0.090909     48.000000
  0.454545  0.272727  0.090909     48.000000
  0.363636  0.363636  0.090909     24.000000
[...]
 parallel 3D FFT for charge:
    minimum data exchange during FFTs selected (reduces bandwidth)

 Broyden mixing: mesh for mixing (old mesh)
   NGX = 11   NGY = 11   NGZ = 11
  (NGX  = 48   NGY  = 48   NGZ  = 48)
  gives a total of   1331 points

 initial charge density was supplied:
 number of electron      32.0000041 magnetization      -0.0000000
 keeping initial charge density in first step

 Maximum index for non-local projection operator         4801
 Maximum index for augmentation-charges          241 (set IRDMAX)

 First call to EWALD:  gamma=   0.326
 Maximum number of real-space cells 3x 3x 3
 Maximum number of reciprocal cells 3x 3x 3

--------------------------------------- Iteration      1(   1)  ---------------------------------------

 eigenvalue-minimisations  :  7200
 total energy-change (2. order) :-0.1622615E+02  (-0.6475089E+03)
 number of electron      32.0000041 magnetization      -0.0000000
 augmentation part       32.0000041 magnetization      -0.0000000

 Free energy of the ion-electron system (eV)
  alpha Z        PSCENC =        13.45656811
  Ewald energy   TEWEN  =      -914.25413255
  -Hartree energ DENC   =       -60.93171831
  -exchange      EXHF   =         0.00000000
  -V(xc)+E(xc)   XCENC  =       -71.67561511
  PAW double counting   =       303.89715195     -164.02850753
  entropy T*S    EENTRO =        -0.00581395
  eigenvalues    EBANDS =        52.94857594
  atomic energy  EATOM  =       824.36734571
  Solvation  Ediel_sol  =         0.00000000
  free energy    TOTEN  =       -16.22614575 eV

  energy without entropy =      -16.22033179  energy(sigma->0) =      -16.22323877

[...]

 Broyden mixing:
  rms(total) = 0.38678E-01    rms(broyden)= 0.38329E-01
  rms(prec ) = 0.87126E-01
  weight for this iteration     100.00

[...]

 eigenvalue-minimisations  :  7168
 total energy-change (2. order) : 0.6473564E-02  (-0.2498581E-03)
 number of electron      32.0000058 magnetization      -0.0000000
 augmentation part       -1.8093929 magnetization      -0.0000001

[...]

 eigenvalues of (default mixing * dielectric matrix)
  average eigenvalue GAMMA=   2.3071
  2.3071

[...]

 average (electrostatic) potential at core
  the test charge radii are     0.9892
  (the norm of the test charge is              1.0000)
       1 -83.2633       2 -83.2633       3 -83.2633       4 -83.2633       5 -83.2633
       6 -83.2633       7 -83.2633       8 -83.2633

 E-fermi :   6.1739     XC(G=0):  -9.4135     alpha+bet :-11.9845

 spin component 1

 k-point     1 :       0.0000    0.0000    0.0000
  band No.  band energies     occupation
      1      -6.1352      1.00000
      2      -1.9825      1.00000
      3      -1.9825      1.00000
      4      -1.9825      1.00000
      5      -1.9825      1.00000
      6      -1.9825      1.00000
      7      -1.9825      1.00000
      8       2.9866      1.00000
      9       2.9866      1.00000
     10       2.9866      1.00000
     11       2.9866      1.00000
     12       2.9866      1.00000
     13       2.9866      1.00000
     14       5.8767      0.99999
     15       5.8767      0.99999
     16       5.8767      0.99999
     17       6.6076      0.00000
     18       6.6076      0.00000
     19       6.6076      0.00000
     20       6.6076      0.00000
     21       6.6076      0.00000
     22       6.6076      0.00000
     23       8.4550      0.00000
     24       8.4550      0.00000
     25       8.4550      0.00000
     26       9.1989      0.00000
     27      13.8025      0.00000
     28      13.8265      0.00000
     29      13.8265      0.00000
     30      16.0271      0.00000
     31      16.0271      0.00000
     32      16.0271      0.00000

[...]

 soft charge-density along one line, spin component           1
         0         1         2         3         4         5         6         7         8         9
 total charge-density along one line

[...]

------------------------ aborting loop because EDIFF is reached ----------------------------------------

 total charge

# of ion       s       p       d       tot
    1        0.762   0.985   0.000   1.747
    2        0.762   0.985   0.000   1.747
    3        0.762   0.985   0.000   1.747
    4        0.762   0.985   0.000   1.747
    5        0.762   0.985   0.000   1.747
    6        0.762   0.985   0.000   1.747
    7        0.762   0.985   0.000   1.747
    8        0.762   0.985   0.000   1.747
tot          6.099   7.877   0.000  13.976

 magnetization (x)

[...]

  FORCE on cell =-STRESS in cart. coord.  units (eV):
  Direction    XX          YY          ZZ          XY          YZ          ZX
  Alpha Z    13.45657    13.45657    13.45657
  Ewald    -304.75190  -304.75190  -304.75190    -0.00000     0.00000     0.00000
  Hartree    19.84294    19.84294    19.84294    -0.00000    -0.00000    -0.00000
  E(xc)    -101.55901  -101.55901  -101.55901    -0.00000    -0.00000    -0.00000
  Local    -117.68601  -117.68601  -117.68601    -0.00000     0.00000    -0.00000
  n-local   313.11806   316.31775   309.62317    -2.93710    -2.32177    -1.50490
  augment   -46.08293   -46.08293   -46.08293     0.00000     0.00000     0.00000
  Kinetic   218.40426   230.24551   228.47533    -3.72910    -5.30211    -2.55601
  Fock        0.00000     0.00000     0.00000     0.00000     0.00000     0.00000
  Total       1.94769     1.94769     1.94769    -0.00000    -0.00000    -0.00000
  in kB      19.49086    19.49086    19.49086    -0.00000    -0.00000    -0.00000

 VOLUME and BASIS-vectors are now :
  energy-cutoff  :      150.00
  volume of cell :      160.10
      direct lattice vectors                 reciprocal lattice vectors
     5.430000000  0.000000000  0.000000000     0.184162063  0.000000000  0.000000000
     0.000000000  5.430000000  0.000000000     0.000000000  0.184162063  0.000000000
     0.000000000  0.000000000  5.430000000     0.000000000  0.000000000  0.184162063

[...]

 FORCES acting on ions
    electron-ion (+dipol)            ewald-force                    non-local-force                 convergence-correction
   -.183E-13 0.203E-14 -.140E-13   -.711E-14 -.355E-14 0.355E-14   0.483E-17 -.132E-16 0.381E-16   0.165E-14 -.977E-15 0.539E-14
   0.785E-14 0.104E-12 -.966E-14   -.388E-14 0.336E-14 0.355E-14   -.258E-16 -.357E-17 -.264E-16   -.586E-14 -.107E-14 0.293E-14
   -.288E-13 -.149E-12 -.184E-12   -.711E-14 0.000E+00 0.000E+00   0.139E-16 0.881E-17 0.315E-16   -.220E-14 0.143E-14 0.544E-14
   0.327E-14 0.103E-12 -.425E-13   -.382E-15 -.709E-14 -.685E-14   -.148E-16 0.123E-16 -.164E-16   -.559E-14 -.579E-15 0.325E-14
   -.236E-13 0.326E-15 -.391E-12   0.000E+00 -.355E-14 -.355E-14   0.220E-16 -.195E-16 0.161E-16   -.230E-14 -.772E-15 0.710E-14
   0.523E-14 -.953E-13 -.227E-12   0.356E-14 -.130E-14 0.252E-15   0.455E-17 -.699E-17 -.113E-16   -.103E-14 -.108E-14 0.293E-14
   -.196E-13 -.137E-13 -.300E-13   0.355E-14 0.711E-14 0.711E-14   0.121E-17 0.143E-16 0.979E-17   0.179E-14 0.521E-15 0.734E-14
   0.654E-15 -.306E-12 -.401E-13   0.713E-14 0.358E-14 -.123E-16   -.487E-17 0.183E-16 -.344E-16   -.148E-14 -.522E-15 0.235E-14
   -.733E-13 -.355E-12 -.938E-12   -.423E-14 -.144E-14 0.404E-14   0.980E-18 0.105E-16 0.699E-17   -.150E-13 -.305E-14 0.367E-13

 POSITION                                       TOTAL-FORCE (eV/Angst)
      0.00000      0.00000      0.00000         0.000000      0.000000     -0.000000
      1.35750      1.35750      1.35750         0.000000      0.000000      0.000000
      2.71500      2.71500      0.00000         0.000000     -0.000000     -0.000000
      1.35750      4.07250      4.07250        -0.000000      0.000000     -0.000000
      2.71500      0.00000      2.71500         0.000000     -0.000000      0.000000
      4.07250      1.35750      4.07250        -0.000000      0.000000     -0.000000
      0.00000      2.71500      2.71500         0.000000     -0.000000      0.000000
      4.07250      4.07250      1.35750        -0.000000     -0.000000      0.000000
    total drift:                               -0.000000     -0.000000     -0.000000

  FREE ENERGIE OF THE ION-ELECTRON SYSTEM (eV)
  free  energy   TOTEN  =       -42.98321705 eV

  energy  without entropy=      -42.98321700  energy(sigma->0) =      -42.98321703

[...]

 d Force = 0.0000000E+00[ 0.000E+00, 0.000E+00]  d Energy = 0.1069751E-01-0.107E-01
 d Force = 0.0000000E+00[ 0.000E+00, 0.000E+00]  d Ewald  =-0.1061346E+02 0.106E+02

 Steepest descent step on ions:
 trial-energy change:   -0.010698  1 .order   -0.011645   -0.068628    0.045339
  (g-gl).g = 0.686E-01      g.g   = 0.686E-01  gl.gl    = 0.000E+00
 g(Force)  = 0.167E-59   g(Stress)= 0.686E-01 ortho     = 0.000E+00
 gamma     =   0.00000
 trial     =   1.00000
 opt step  =   0.59011  (harmonic =   0.60217) maximal distance =0.00000000
 next E    =   -43.003272   (d E  =  -0.02005)

[...]

 eigenvalue-minimisations  :  7168
 total energy-change (2. order) : 0.1473959E-02  (-0.2225572E-03)
 number of electron      32.0000041 magnetization      -0.0000000
 augmentation part       -1.8121518 magnetization       0.0000012

[...]

 Broyden mixing:
  rms(total) = 0.41161E-03    rms(broyden)= 0.41019E-03
  rms(prec ) = 0.58579E-03
  weight for this iteration     100.00

 eigenvalues of (default mixing * dielectric matrix)
  average eigenvalue GAMMA=   1.8454
  2.4650  2.3703  0.7009

[...]

--------------------------------------- Iteration      3(   5)  ---------------------------------------

 eigenvalue-minimisations  :  3732
 total energy-change (2. order) :-0.2830655E-05  (-0.1300825E-06)
 number of electron      32.0000041 magnetization       0.0000000
 augmentation part       -1.8123583 magnetization      -0.0000034

 Free energy of the ion-electron system (eV)
  alpha Z        PSCENC =        13.18059882
  Ewald energy   TEWEN  =      -907.96102812
  -Hartree energ DENC   =       -60.51442248
  -exchange      EXHF   =         0.00000000
  -V(xc)+E(xc)   XCENC  =       -72.07902343
  PAW double counting   =       303.89255842     -164.02365117
  entropy T*S    EENTRO =        -0.00000002
  eigenvalues    EBANDS =        20.13442854
  atomic energy  EATOM  =       824.36734571
  Solvation  Ediel_sol  =         0.00000000
  free energy    TOTEN  =       -43.00319373 eV

  energy without entropy =      -43.00319371  energy(sigma->0) =      -43.00319372

 average (electrostatic) potential at core
  the test charge radii are     0.9892
  (the norm of the test charge is              1.0000)
       1 -83.4955       2 -83.4955       3 -83.4955       4 -83.4955       5 -83.4955
       6 -83.4955       7 -83.4955       8 -83.4955

 E-fermi :   5.9840     XC(G=0):  -9.3326     alpha+bet :-11.7388

[...]

 spin component 2

[...]

 k-point    56 :       0.4545    0.4545    0.4545
  band No.  band energies     occupation
      1      -4.0267      1.00000
      2      -3.9068      1.00000
      3      -3.9068      1.00000
      4      -3.9068      1.00000
      5      -1.2191      1.00000
      6      -1.2191      1.00000
      7      -1.2191      1.00000
      8      -1.0900      1.00000
      9       4.2636      1.00000
     10       4.2636      1.00000
     11       4.2636      1.00000
     12       4.4105      1.00000
     13       4.4105      1.00000
     14       4.4105      1.00000
     15       4.4795      1.00000
     16       4.4795      1.00000
     17       7.1482      0.00000
     18       7.3314      0.00000
     19       7.3314      0.00000
     20       7.3314      0.00000
     21       9.0389      0.00000
     22       9.0389      0.00000
     23       9.0389      0.00000
     24       9.1011      0.00000
     25       9.1011      0.00000
     26       9.1935      0.00000
     27       9.1935      0.00000
     28       9.1935      0.00000
     29      13.3973      0.00000
     30      13.4715      0.00000
     31      13.4715      0.00000
     32      13.4715      0.00000

[...]

 soft charge-density along one line, spin component           2
         0         1         2         3         4         5         6         7         8         9
 total charge-density along one line

------------------------ aborting loop because EDIFF is reached ----------------------------------------

[...]

  FORCE on cell =-STRESS in cart. coord.  units (eV):
  Direction    XX          YY          ZZ          XY          YZ          ZX
  Alpha Z    13.18060    13.18060    13.18060
  Ewald    -302.65419  -302.65419  -302.65419     0.00000     0.00000    -0.00000
  Hartree    20.17101    20.17101    20.17101    -0.00000    -0.00000    -0.00000
  E(xc)    -101.07131  -101.07131  -101.07131    -0.00000     0.00000    -0.00000
  Local    -118.79862  -118.79862  -118.79862    -0.00000    -0.00000    -0.00000
  n-local   311.47790   314.71817   308.11881    -2.88780    -2.29390    -1.48292
  augment   -46.06513   -46.06513   -46.06513     0.00000     0.00000     0.00000
  Kinetic   216.66028   228.37194   226.38115    -3.71565    -5.27873    -2.55375
  Fock        0.00000     0.00000     0.00000     0.00000     0.00000     0.00000
  Total       0.00510     0.00510     0.00510     0.00000     0.00000     0.00000
  in kB       0.04998     0.04998     0.04998     0.00000     0.00000     0.00000

 VOLUME and BASIS-vectors are now :
  energy-cutoff  :      150.00
  volume of cell :      163.46
      direct lattice vectors                 reciprocal lattice vectors
     5.467635489 -0.000000000 -0.000000000     0.182894416  0.000000000 -0.000000000
    -0.000000000  5.467635489 -0.000000000     0.000000000  0.182894416  0.000000000
     0.000000000 -0.000000000  5.467635489     0.000000000  0.000000000  0.182894416

  length of vectors
     5.467635489  5.467635489  5.467635489     0.182894416  0.182894416  0.182894416

 FORCES acting on ions
    electron-ion (+dipol)            ewald-force                    non-local-force                 convergence-correction
   0.520E-14 0.160E-14 0.725E-14   0.000E+00 0.000E+00 0.000E+00   -.817E-17 -.257E-18 0.301E-17   -.208E-15 0.307E-14 0.152E-15
   -.208E-13 0.976E-13 0.107E-13   0.345E-15 -.700E-14 0.711E-14   -.705E-17 -.326E-16 0.458E-17   -.102E-14 0.423E-16 0.210E-14
   0.585E-14 -.149E-12 -.160E-12   -.711E-14 0.000E+00 -.711E-14   0.112E-16 0.283E-16 -.568E-17   0.306E-14 0.365E-14 0.687E-16
   -.208E-13 0.983E-13 -.216E-13   0.776E-15 -.709E-14 0.487E-15   -.582E-18 -.296E-16 0.243E-17   -.910E-15 -.400E-15 0.806E-15
   -.123E-13 0.222E-14 -.362E-12   -.711E-14 0.711E-14 -.711E-14   0.112E-16 0.280E-16 0.273E-17   0.316E-14 0.266E-14 -.214E-15
   -.247E-13 -.102E-12 -.206E-12   0.712E-14 -.605E-16 0.759E-14   -.963E-17 -.107E-17 0.254E-17   -.646E-15 -.363E-15 0.144E-14
   0.975E-14 -.124E-13 -.796E-14   0.711E-14 0.711E-14 0.000E+00   0.434E-17 0.160E-17 0.259E-17   0.277E-15 0.416E-14 -.445E-15
   -.260E-13 -.311E-12 -.189E-13   0.805E-17 0.359E-16 0.507E-16   0.692E-17 0.489E-17 0.697E-18   -.361E-15 -.235E-15 0.227E-14
   -.838E-13 -.375E-12 -.758E-12   0.114E-14 0.909E-16 0.103E-14   0.819E-17 -.743E-18 0.129E-16   0.335E-14 0.126E-13 0.618E-14

 POSITION                                       TOTAL-FORCE (eV/Angst)
      0.00000      0.00000     -0.00000         0.000000     -0.000000     -0.000000
      1.36691      1.36691      1.36691        -0.000000      0.000000     -0.000000
      2.73382      2.73382     -0.00000         0.000000     -0.000000      0.000000
      1.36691      4.10073      4.10073        -0.000000      0.000000      0.000000
      2.73382     -0.00000      2.73382         0.000000     -0.000000     -0.000000
      4.10073      1.36691      4.10073        -0.000000      0.000000     -0.000000
     -0.00000      2.73382      2.73382         0.000000     -0.000000     -0.000000
      4.10073      4.10073      1.36691        -0.000000      0.000000      0.000000
    total drift:                               -0.000000     -0.000000     -0.000000

  FREE ENERGIE OF THE ION-ELECTRON SYSTEM (eV)
  free  energy   TOTEN  =       -43.00319373 eV

  energy  without entropy=      -43.00319371  energy(sigma->0) =      -43.00319372

 d Force = 0.0000000E+00[ 0.000E+00, 0.000E+00]  d Energy = 0.9279161E-02-0.928E-02
 d Force = 0.0000000E+00[ 0.000E+00, 0.000E+00]  d Ewald  = 0.4320355E+01-0.432E+01

 reached required accuracy - stopping structural energy minimisation

 total charge

[...]

 magnetization (x)

# of ion       s       p       d       tot
    1       -0.000   0.000   0.000   0.000
    2       -0.000   0.000   0.000   0.000
    3       -0.000   0.000   0.000   0.000
    4       -0.000   0.000   0.000   0.000
    5       -0.000   0.000   0.000   0.000
    6       -0.000   0.000   0.000   0.000
    7       -0.000   0.000   0.000   0.000
    8       -0.000   0.000   0.000   0.000
tot         -0.000   0.000   0.000   0.000