 vasp.5.4.4.18Apr17-6-g9f103f2a35 (build Dec 09 2018 21:25:21) complex

 executed on IFC18.0.1.163_CrayMP date 2019.03.19  13:20:08

 INCAR:
 POTCAR:   PAW_PBE Si 05Jan2001

 POTCAR:   PAW_PBE Si 05Jan2001
   VRHFIN =Si: s2p2

   TITEL  = PAW_PBE Si 05Jan2001
   POMASS =   28.085; ZVAL   =    4.000    mass and valenz
   ENMAX  =  245.345; ENMIN  =  184.009 eV
   QCUT   =   -4.246; QGAM   =    8.493    optimization parameters

   Description
     l     E      TYP  RCUT    TYP  RCUT
     0   .000     23  1.900
     0   .000     23  1.900
     1   .000     23  1.900
     1   .000     23  1.900
     2   .000      7  1.900

 PAW_PBE Si 05Jan2001                   :

 POSCAR: Si2
  positions in direct lattice
 exchange correlation table for  LEXCH =        8
   RHO(1)=    0.500       N(1)  =     2000
   RHO(2)=  100.500       N(2)  =     4000

 ion  position               nearest neighbor table
   1  0.250  0.750  0.500-   2 2.53   2 2.53   2 2.53   2 2.53   2 3.11   2 3.11   2 3.11   2 3.11

   2  0.000  0.000  0.000-   1 2.53   1 2.53   1 2.53   1 2.53   1 3.11   1 3.11   1 3.11   1 3.11

  LATTYP: Found a body centered tetragonal cell.
 ALAT       =     4.9000000000
 C/A-ratio  =     0.5200000000

  Lattice vectors:

 A1 = (  -2.4500000000,   2.4500000000,   1.2740000000)
 A2 = (   2.4500000000,  -2.4500000000,   1.2740000000)
 A3 = (   2.4500000000,   2.4500000000,  -1.2740000000)

Analysis of symmetry for initial positions (statically):
 Subroutine PRICEL returns:
 Original cell was already a primitive cell.

 Routine SETGRP: Setting up the symmetry group for a
 body centered tetragonal supercell.

 Subroutine GETGRP returns: Found 16 space group operations
 (whereof  8 operations were pure point group operations)
 out of a pool of 16 trial point group operations.

The static configuration has the point symmetry D_2d.
 The point group associated with its full space group is D_4h.

Analysis of symmetry for dynamics (positions and initial velocities):
 Subroutine PRICEL returns:
 Original cell was already a primitive cell.

 Routine SETGRP: Setting up the symmetry group for a
 body centered tetragonal supercell.

 Subroutine GETGRP returns: Found 16 space group operations
 (whereof  8 operations were pure point group operations)
 out of a pool of 16 trial point group operations.

The dynamic configuration has the point symmetry D_2d.
 The point group associated with its full space group is D_4h.

 Subroutine INISYM returns: Found 16 space group operations
 (whereof  8 operations are pure point group operations),
 and found     1 'primitive' translations

 KPOINTS: Automatic kpoint scheme

Automatic generation of k-mesh.
Space group operators:
 irot       det(A)        alpha          n_x          n_y          n_z        tau_x        tau_y        tau_z
    1     1.000000     0.000000     1.000000     0.000000     0.000000     0.000000     0.000000     0.000000
    2    -1.000000    90.000000    -0.000000    -0.000000    -1.000000     0.000000     0.000000     0.000000
    3     1.000000   180.000000    -0.000000    -0.000000    -1.000000     0.000000     0.000000     0.000000
    4    -1.000000    90.000000    -0.000000     0.000000     1.000000     0.000000     0.000000     0.000000
    5    -1.000000   180.000000     0.000000    -1.000000     0.000000     0.000000     0.000000     0.000000
    6     1.000000   180.000000     0.707107     0.707107    -0.000000     0.000000     0.000000     0.000000
    7    -1.000000   180.000000     1.000000     0.000000     0.000000     0.000000     0.000000     0.000000
    8     1.000000   180.000000     0.707107    -0.707107     0.000000     0.000000     0.000000     0.000000
    9    -1.000000     0.000000     1.000000     0.000000     0.000000     0.250000     0.750000     0.500000
   10     1.000000    90.000000    -0.000000    -0.000000    -1.000000     0.250000     0.750000     0.500000
   11    -1.000000   180.000000    -0.000000    -0.000000    -1.000000     0.250000     0.750000     0.500000
   12     1.000000    90.000000    -0.000000     0.000000     1.000000     0.250000     0.750000     0.500000
   13     1.000000   180.000000     0.000000    -1.000000     0.000000     0.250000     0.750000     0.500000
   14    -1.000000   180.000000     0.707107     0.707107    -0.000000     0.250000     0.750000     0.500000
   15     1.000000   180.000000     1.000000     0.000000     0.000000     0.250000     0.750000     0.500000
   16    -1.000000   180.000000     0.707107    -0.707107     0.000000     0.250000     0.750000     0.500000

 Subroutine IBZKPT returns following result:

 Found     99 irreducible k-points:

 Following reciprocal coordinates:
            Coordinates               Weight
  0.050000  0.050000  0.050000    128.000000
  0.150000  0.050000  0.050000    256.000000
  0.250000  0.050000  0.050000    256.000000
  0.350000  0.050000  0.050000    256.000000
  0.450000  0.050000  0.050000    128.000000
 -0.050000  0.050000  0.050000     64.000000
  0.150000  0.150000  0.050000    128.000000
  0.250000  0.150000  0.050000    256.000000
  0.350000  0.150000  0.050000    256.000000
  0.450000  0.150000  0.050000    256.000000
 -0.450000  0.150000  0.050000    256.000000
 -0.350000  0.150000  0.050000    256.000000
 -0.250000  0.150000  0.050000    128.000000
 -0.150000  0.150000  0.050000    128.000000
 -0.050000  0.150000  0.050000    128.000000
  0.250000  0.250000  0.050000    128.000000
  0.350000  0.250000  0.050000    256.000000
  0.450000  0.250000  0.050000    256.000000
 -0.450000  0.250000  0.050000    256.000000
 -0.350000  0.250000  0.050000    128.000000
 -0.250000  0.250000  0.050000    128.000000
 -0.150000  0.250000  0.050000    256.000000
 -0.050000  0.250000  0.050000    128.000000
  0.350000  0.350000  0.050000    128.000000
  0.450000  0.350000  0.050000    256.000000
 -0.450000  0.350000  0.050000    128.000000
 -0.350000  0.350000  0.050000    128.000000
 -0.250000  0.350000  0.050000    256.000000
 -0.150000  0.350000  0.050000    256.000000
 -0.050000  0.350000  0.050000    128.000000
  0.450000  0.450000  0.050000     64.000000
 -0.450000  0.450000  0.050000    128.000000
 -0.350000  0.450000  0.050000    256.000000
 -0.250000  0.450000  0.050000    256.000000
 -0.150000  0.450000  0.050000    256.000000
 -0.050000  0.450000  0.050000    128.000000
 -0.450000 -0.450000  0.050000    128.000000
 -0.350000 -0.450000  0.050000    256.000000
 -0.250000 -0.450000  0.050000    256.000000
 -0.150000 -0.450000  0.050000    256.000000
 -0.050000 -0.450000  0.050000    128.000000
 -0.350000 -0.350000  0.050000    128.000000
 -0.250000 -0.350000  0.050000    256.000000
 -0.150000 -0.350000  0.050000    256.000000
 -0.050000 -0.350000  0.050000    128.000000
 -0.250000 -0.250000  0.050000    128.000000
 -0.150000 -0.250000  0.050000    256.000000
 -0.050000 -0.250000  0.050000    128.000000
 -0.150000 -0.150000  0.050000    128.000000
 -0.050000 -0.150000  0.050000    128.000000
 -0.050000 -0.050000  0.050000     32.000000
  0.150000  0.150000  0.150000    128.000000
  0.250000  0.150000  0.150000    256.000000
  0.350000  0.150000  0.150000    128.000000
 -0.150000  0.150000  0.150000     64.000000
  0.250000  0.250000  0.150000    128.000000
  0.350000  0.250000  0.150000    256.000000
  0.450000  0.250000  0.150000    128.000000
 -0.250000  0.250000  0.150000    128.000000
 -0.150000  0.250000  0.150000    128.000000
[...]
 -0.250000  0.450000  0.250000    128.000000
 -0.450000 -0.450000  0.250000    128.000000
 -0.350000 -0.450000  0.250000    256.000000
 -0.250000 -0.450000  0.250000    128.000000
 -0.350000 -0.350000  0.250000    128.000000
 -0.250000 -0.350000  0.250000    128.000000
 -0.250000 -0.250000  0.250000     32.000000
 -0.350000  0.350000  0.350000     64.000000
 -0.450000  0.450000  0.350000    128.000000
 -0.350000  0.450000  0.350000    128.000000
 -0.450000 -0.450000  0.350000    128.000000
 -0.350000 -0.450000  0.350000    128.000000
 -0.350000 -0.350000  0.350000     32.000000
 -0.450000  0.450000  0.450000     64.000000
 -0.450000 -0.450000  0.450000     32.000000

 Following cartesian coordinates:
            Coordinates               Weight
  0.020408  0.020408  0.039246    128.000000
  0.020408  0.040816  0.078493    256.000000
  0.020408  0.061224  0.117739    256.000000
  0.020408  0.081633  0.156986    256.000000
  0.020408  0.102041  0.196232    128.000000
  0.020408  0.000000 -0.000000     64.000000
  0.040816  0.040816  0.117739    128.000000
  0.040816  0.061224  0.156986    256.000000
  0.040816  0.081633  0.196232    256.000000
  0.040816  0.102041  0.235479    256.000000
  0.040816 -0.081633 -0.117739    256.000000
  0.040816 -0.061224 -0.078493    256.000000
  0.040816 -0.040816 -0.039246    128.000000
  0.040816 -0.020408  0.000000    128.000000
  0.040816  0.000000  0.039246    128.000000
  0.061224  0.061224  0.196232    128.000000
  0.061224  0.081633  0.235479    256.000000
  0.061224  0.102041  0.274725    256.000000
  0.061224 -0.081633 -0.078493    256.000000
  0.061224 -0.061224 -0.039246    128.000000
  0.061224 -0.040816  0.000000    128.000000
  0.061224 -0.020408  0.039246    256.000000
  0.061224  0.000000  0.078493    128.000000
  0.081633  0.081633  0.274725    128.000000
  0.081633  0.102041  0.313972    256.000000
  0.081633 -0.081633 -0.039246    128.000000
  0.081633 -0.061224  0.000000    128.000000
  0.081633 -0.040816  0.039246    256.000000
  0.081633 -0.020408  0.078493    256.000000
  0.081633  0.000000  0.117739    128.000000
  0.102041  0.102041  0.353218     64.000000
  0.102041 -0.081633  0.000000    128.000000
  0.102041 -0.061224  0.039246    256.000000
  0.102041 -0.040816  0.078493    256.000000
  0.102041 -0.020408  0.117739    256.000000
  0.102041  0.000000  0.156986    128.000000
 -0.081633 -0.081633 -0.353218    128.000000
 -0.081633 -0.061224 -0.313972    256.000000
 -0.081633 -0.040816 -0.274725    256.000000
 -0.081633 -0.020408 -0.235479    256.000000
 -0.081633 -0.000000 -0.196232    128.000000
 -0.061224 -0.061224 -0.274725    128.000000
 -0.061224 -0.040816 -0.235479    256.000000
 -0.061224 -0.020408 -0.196232    256.000000
 -0.061224 -0.000000 -0.156986    128.000000
 -0.040816 -0.040816 -0.196232    128.000000
 -0.040816 -0.020408 -0.156986    256.000000
 -0.040816 -0.000000 -0.117739    128.000000
 -0.020408 -0.020408 -0.117739    128.000000
 -0.020408  0.000000 -0.078493    128.000000
 -0.000000  0.000000 -0.039246     32.000000
  0.061224  0.061224  0.117739    128.000000
  0.061224  0.081633  0.156986    256.000000
  0.061224  0.102041  0.196232    128.000000
  0.061224  0.000000  0.000000     64.000000
  0.081633  0.081633  0.196232    128.000000
  0.081633  0.102041  0.235479    256.000000
  0.081633  0.122449  0.274725    128.000000
  0.081633 -0.020408  0.000000    128.000000
  0.081633  0.000000  0.039246    128.000000
[...]
  0.142857  0.000000  0.078493    128.000000
 -0.040816 -0.040816 -0.353218    128.000000
 -0.040816 -0.020408 -0.313972    256.000000
 -0.040816  0.000000 -0.274725    128.000000
 -0.020408 -0.020408 -0.274725    128.000000
 -0.020408  0.000000 -0.235479    128.000000
[...]
  -0.04081633 -0.00000000 -0.11773940       0.008
  -0.02040816 -0.02040816 -0.11773940       0.008
  -0.02040816 -0.00000000 -0.07849294       0.008
   0.00000000  0.00000000 -0.03924647       0.002
   0.06122449  0.06122449  0.11773940       0.008
   0.06122449  0.08163265  0.15698587       0.016
   0.06122449  0.10204082  0.19623234       0.008
   0.06122449  0.00000000 -0.00000000       0.004
   0.08163265  0.08163265  0.19623234       0.008
   0.08163265  0.10204082  0.23547881       0.016
   0.08163265  0.12244898  0.27472527       0.008
   0.08163265 -0.02040816 -0.00000000       0.008
   0.08163265 -0.00000000  0.03924647       0.008
[...]
   0.14285714  0.00000000  0.07849294       0.008
  -0.04081633 -0.04081633 -0.35321821       0.008
  -0.04081633 -0.02040816 -0.31397174       0.016
  -0.04081633  0.00000000 -0.27472527       0.008
  -0.02040816 -0.02040816 -0.27472527       0.008
  -0.02040816  0.00000000 -0.23547881       0.008
   0.00000000  0.00000000 -0.19623234       0.002
   0.14285714  0.00000000 -0.00000000       0.004
   0.16326531 -0.02040816 -0.00000000       0.008
   0.16326531  0.00000000  0.03924647       0.008
  -0.02040816 -0.02040816 -0.35321821       0.008
  -0.02040816 -0.00000000 -0.31397174       0.008
   0.00000000 -0.00000000 -0.27472527       0.002
   0.18367347  0.00000000 -0.00000000       0.004
  -0.00000000 -0.00000000 -0.35321821       0.002

 k-points in reciprocal lattice and weights: Automatic kpoint scheme
   0.05000000  0.05000000  0.05000000       0.008
   0.15000000  0.05000000  0.05000000       0.016
   0.25000000  0.05000000  0.05000000       0.016
   0.35000000  0.05000000  0.05000000       0.016
   0.45000000  0.05000000  0.05000000       0.008
  -0.05000000  0.05000000  0.05000000       0.004
   0.15000000  0.15000000  0.05000000       0.008
   0.25000000  0.15000000  0.05000000       0.016
   0.35000000  0.15000000  0.05000000       0.016
   0.45000000  0.15000000  0.05000000       0.016
  -0.45000000  0.15000000  0.05000000       0.016
  -0.35000000  0.15000000  0.05000000       0.016
  -0.25000000  0.15000000  0.05000000       0.008
  -0.15000000  0.15000000  0.05000000       0.008
  -0.05000000  0.15000000  0.05000000       0.008
   0.25000000  0.25000000  0.05000000       0.008
   0.35000000  0.25000000  0.05000000       0.016
   0.45000000  0.25000000  0.05000000       0.016
  -0.45000000  0.25000000  0.05000000       0.016
  -0.35000000  0.25000000  0.05000000       0.008
  -0.25000000  0.25000000  0.05000000       0.008
  -0.15000000  0.25000000  0.05000000       0.016
  -0.05000000  0.25000000  0.05000000       0.008
   0.35000000  0.35000000  0.05000000       0.008
   0.45000000  0.35000000  0.05000000       0.016
  -0.45000000  0.35000000  0.05000000       0.008
  -0.35000000  0.35000000  0.05000000       0.008
  -0.25000000  0.35000000  0.05000000       0.016
  -0.15000000  0.35000000  0.05000000       0.016
  -0.05000000  0.35000000  0.05000000       0.008
   0.45000000  0.45000000  0.05000000       0.004
  -0.45000000  0.45000000  0.05000000       0.008
  -0.35000000  0.45000000  0.05000000       0.016
  -0.25000000  0.45000000  0.05000000       0.016
  -0.15000000  0.45000000  0.05000000       0.016
  -0.05000000  0.45000000  0.05000000       0.008
  -0.45000000 -0.45000000  0.05000000       0.008
  -0.35000000 -0.45000000  0.05000000       0.016
  -0.25000000 -0.45000000  0.05000000       0.016
  -0.15000000 -0.45000000  0.05000000       0.016
  -0.05000000 -0.45000000  0.05000000       0.008
  -0.35000000 -0.35000000  0.05000000       0.008
  -0.25000000 -0.35000000  0.05000000       0.016
  -0.15000000 -0.35000000  0.05000000       0.016
  -0.05000000 -0.35000000  0.05000000       0.008
  -0.25000000 -0.25000000  0.05000000       0.008
  -0.15000000 -0.25000000  0.05000000       0.016
  -0.05000000 -0.25000000  0.05000000       0.008
  -0.15000000 -0.15000000  0.05000000       0.008
  -0.05000000 -0.15000000  0.05000000       0.008
  -0.05000000 -0.05000000  0.05000000       0.002
   0.15000000  0.15000000  0.15000000       0.008
   0.25000000  0.15000000  0.15000000       0.016
   0.35000000  0.15000000  0.15000000       0.008
  -0.15000000  0.15000000  0.15000000       0.004
   0.25000000  0.25000000  0.15000000       0.008
   0.35000000  0.25000000  0.15000000       0.016
   0.45000000  0.25000000  0.15000000       0.008
  -0.25000000  0.25000000  0.15000000       0.008
  -0.15000000  0.25000000  0.15000000       0.008
[...]
  -0.25000000  0.45000000  0.25000000       0.008
  -0.45000000 -0.45000000  0.25000000       0.008
  -0.35000000 -0.45000000  0.25000000       0.016
  -0.25000000 -0.45000000  0.25000000       0.008
  -0.35000000 -0.35000000  0.25000000       0.008
  -0.25000000 -0.35000000  0.25000000       0.008
  -0.25000000 -0.25000000  0.25000000       0.002
  -0.35000000  0.35000000  0.35000000       0.004
  -0.45000000  0.45000000  0.35000000       0.008
  -0.35000000  0.45000000  0.35000000       0.008
  -0.45000000 -0.45000000  0.35000000       0.008
  -0.35000000 -0.45000000  0.35000000       0.008
  -0.35000000 -0.35000000  0.35000000       0.002
  -0.45000000  0.45000000  0.45000000       0.004
  -0.45000000 -0.45000000  0.45000000       0.002

 position of ions in fractional coordinates (direct lattice)
   0.25000000  0.75000000  0.50000000
   0.00000000  0.00000000  0.00000000

 position of ions in cartesian coordinates  (Angst):
   2.45000000  0.00000000  0.63700000
   0.00000000  0.00000000  0.00000000

 k-point  1 :   0.0500 0.0500 0.0500  plane waves:     457
 k-point  2 :   0.1500 0.0500 0.0500  plane waves:     460
 k-point  3 :   0.2500 0.0500 0.0500  plane waves:     463
 k-point  4 :   0.3500 0.0500 0.0500  plane waves:     453
 k-point  5 :   0.4500 0.0500 0.0500  plane waves:     458
 k-point  6 :  -0.0500 0.0500 0.0500  plane waves:     451
 k-point  7 :   0.1500 0.1500 0.0500  plane waves:     462
 k-point  8 :   0.2500 0.1500 0.0500  plane waves:     458
 k-point  9 :   0.3500 0.1500 0.0500  plane waves:     459
 k-point 10 :   0.4500 0.1500 0.0500  plane waves:     460
 k-point 11 :  -0.4500 0.1500 0.0500  plane waves:     457
 k-point 12 :  -0.3500 0.1500 0.0500  plane waves:     458
 k-point 13 :  -0.2500 0.1500 0.0500  plane waves:     457
 k-point 14 :  -0.1500 0.1500 0.0500  plane waves:     454
 k-point 15 :  -0.0500 0.1500 0.0500  plane waves:     459
 k-point 16 :   0.2500 0.2500 0.0500  plane waves:     458
 k-point 17 :   0.3500 0.2500 0.0500  plane waves:     458
 k-point 18 :   0.4500 0.2500 0.0500  plane waves:     458
 k-point 19 :  -0.4500 0.2500 0.0500  plane waves:     454
 k-point 20 :  -0.3500 0.2500 0.0500  plane waves:     452
 k-point 21 :  -0.2500 0.2500 0.0500  plane waves:     456
 k-point 22 :  -0.1500 0.2500 0.0500  plane waves:     455
 k-point 23 :  -0.0500 0.2500 0.0500  plane waves:     461
 k-point 24 :   0.3500 0.3500 0.0500  plane waves:     454
 k-point 25 :   0.4500 0.3500 0.0500  plane waves:     453
 k-point 26 :  -0.4500 0.3500 0.0500  plane waves:     451
 k-point 27 :  -0.3500 0.3500 0.0500  plane waves:     454
 k-point 28 :  -0.2500 0.3500 0.0500  plane waves:     452
 k-point 29 :  -0.1500 0.3500 0.0500  plane waves:     456
 k-point 30 :  -0.0500 0.3500 0.0500  plane waves:     459
 k-point 31 :   0.4500 0.4500 0.0500  plane waves:     450
 k-point 32 :  -0.4500 0.4500 0.0500  plane waves:     445
 k-point 33 :  -0.3500 0.4500 0.0500  plane waves:     448
 k-point 34 :  -0.2500 0.4500 0.0500  plane waves:     452
 k-point 35 :  -0.1500 0.4500 0.0500  plane waves:     452
 k-point 36 :  -0.0500 0.4500 0.0500  plane waves:     457
 k-point 37 :  -0.4500-0.4500 0.0500  plane waves:     447
 k-point 38 :  -0.3500-0.4500 0.0500  plane waves:     448
 k-point 39 :  -0.2500-0.4500 0.0500  plane waves:     455
 k-point 40 :  -0.1500-0.4500 0.0500  plane waves:     461
 k-point 41 :  -0.0500-0.4500 0.0500  plane waves:     455
 k-point 42 :  -0.3500-0.3500 0.0500  plane waves:     454
 k-point 43 :  -0.2500-0.3500 0.0500  plane waves:     461
 k-point 44 :  -0.1500-0.3500 0.0500  plane waves:     457
 k-point 45 :  -0.0500-0.3500 0.0500  plane waves:     456
 k-point 46 :  -0.2500-0.2500 0.0500  plane waves:     456
 k-point 47 :  -0.1500-0.2500 0.0500  plane waves:     459
 k-point 48 :  -0.0500-0.2500 0.0500  plane waves:     468
 k-point 49 :  -0.1500-0.1500 0.0500  plane waves:     462
 k-point 50 :  -0.0500-0.1500 0.0500  plane waves:     466
 k-point 51 :  -0.0500-0.0500 0.0500  plane waves:     443
 k-point 52 :   0.1500 0.1500 0.1500  plane waves:     457
 k-point 53 :   0.2500 0.1500 0.1500  plane waves:     463
 k-point 54 :   0.3500 0.1500 0.1500  plane waves:     458
 k-point 55 :  -0.1500 0.1500 0.1500  plane waves:     453
 k-point 56 :   0.2500 0.2500 0.1500  plane waves:     458
 k-point 57 :   0.3500 0.2500 0.1500  plane waves:     456
 k-point 58 :   0.4500 0.2500 0.1500  plane waves:     460
 k-point 59 :  -0.2500 0.2500 0.1500  plane waves:     456
 k-point 60 :  -0.1500 0.2500 0.1500  plane waves:     453
[...]
 k-point 85 :  -0.2500 0.4500 0.2500  plane waves:     451
 k-point 86 :  -0.4500-0.4500 0.2500  plane waves:     449
 k-point 87 :  -0.3500-0.4500 0.2500  plane waves:     452
 k-point 88 :  -0.2500-0.4500 0.2500  plane waves:     447
 k-point 89 :  -0.3500-0.3500 0.2500  plane waves:     457
 k-point 90 :  -0.2500-0.3500 0.2500  plane waves:     454
 k-point 91 :  -0.2500-0.2500 0.2500  plane waves:     460
 k-point 92 :  -0.3500 0.3500 0.3500  plane waves:     450
 k-point 93 :  -0.4500 0.4500 0.3500  plane waves:     453
 k-point 94 :  -0.3500 0.4500 0.3500  plane waves:     452
 k-point 95 :  -0.4500-0.4500 0.3500  plane waves:     453
 k-point 96 :  -0.3500-0.4500 0.3500  plane waves:     456
 k-point 97 :  -0.3500-0.3500 0.3500  plane waves:     452
 k-point 98 :  -0.4500 0.4500 0.4500  plane waves:     460
 k-point 99 :  -0.4500-0.4500 0.4500  plane waves:     460

 maximum and minimum number of plane-waves per node :       468      443

 maximum number of plane-waves:       468
 maximum index in each direction:
   IXMAX=    6   IYMAX=    6   IZMAX=    5
   IXMIN=   -6   IYMIN=   -6   IZMIN=   -6

 serial   3D FFT for wavefunctions
 parallel 3D FFT for charge:
    minimum data exchange during FFTs selected (reduces bandwidth)

 Broyden mixing: mesh for mixing (old mesh)
   NGX = 11   NGY = 11   NGZ = 11
  (NGX  = 36   NGY  = 36   NGZ  = 36)
  gives a total of   1331 points

 charge density for first step will be calculated from the start-wavefunctions

 Maximum index for augmentation-charges          911 (set IRDMAX)

 initial charge from wavefunction
 First call to EWALD:  gamma=   0.567
 Maximum number of real-space cells 4x 4x 3
 Maximum number of reciprocal cells 3x 3x 3

--------------------------------------- Iteration      1(   1)  ---------------------------------------

 eigenvalue-minimisations  :   968
 total energy-change (2. order) :-0.1024872E+02  (-0.2918267E-06)
 number of electron       7.9999995 magnetization
 augmentation part       -0.4739896 magnetization

 Broyden mixing:
  rms(total) = 0.45469E-04    rms(broyden)= 0.45466E-04
  rms(prec ) = 0.10968E-03
  weight for this iteration     100.00

 Free energy of the ion-electron system (eV)
  alpha Z        PSCENC =         4.40202223
  Ewald energy   TEWEN  =      -265.18101312
  -Hartree energ DENC   =        -2.50413963
  -exchange      EXHF   =         0.00000000
  -V(xc)+E(xc)   XCENC  =       -17.58149274
  PAW double counting   =        70.18814599      -35.10030232
  entropy T*S    EENTRO =        -0.01669153
  eigenvalues    EBANDS =        29.41349355
  atomic energy  EATOM  =       206.13125414
  Solvation  Ediel_sol  =         0.00000000
  free energy    TOTEN  =       -10.24872341 eV

  energy without entropy =      -10.23203188  energy(sigma->0) =      -10.24037765

--------------------------------------- Iteration      1(   2)  ---------------------------------------

 eigenvalue-minimisations  :   976
 total energy-change (2. order) :-0.1828687E-07  (-0.2282051E-07)
 number of electron       7.9999995 magnetization
 augmentation part       -0.4739896 magnetization

 Free energy of the ion-electron system (eV)
  alpha Z        PSCENC =         4.40202223
  Ewald energy   TEWEN  =      -265.18101312
  -Hartree energ DENC   =        -2.50424589
  -exchange      EXHF   =         0.00000000
  -V(xc)+E(xc)   XCENC  =       -17.58146990
  PAW double counting   =        70.18802987      -35.10018082
  entropy T*S    EENTRO =        -0.01669153
  eigenvalues    EBANDS =        29.41357160
  atomic energy  EATOM  =       206.13125414
  Solvation  Ediel_sol  =         0.00000000
  free energy    TOTEN  =       -10.24872343 eV

  energy without entropy =      -10.23203190  energy(sigma->0) =      -10.24037767

 average (electrostatic) potential at core
  the test charge radii are     0.9892
  (the norm of the test charge is              1.0000)
       1 -80.5449       2 -80.5449

 E-fermi :   9.0662     XC(G=0): -10.8909     alpha+bet :-15.6819

 k-point     1 :       0.0500    0.0500    0.0500
  band No.  band energies     occupation
      1      -4.2731      2.00000
      2       4.7264      2.00000
      3       6.5988      2.00000
      4       7.7306      2.00000
      5      11.4666      0.00000
      6      15.0047      0.00000
      7      16.0508      0.00000
      8      16.9813      0.00000

[...]

 k-point    99 :      -0.4500   -0.4500    0.4500
  band No.  band energies     occupation
      1       0.6668      2.00000
      2       0.6763      2.00000
      3       2.4938      2.00000
      4       2.4938      2.00000
      5      12.6028      0.00000
      6      19.9220      0.00000
      7      20.7422      0.00000
      8      21.0092      0.00000

 soft charge-density along one line, spin component           1
         0         1         2         3         4         5         6         7         8         9
 total charge-density along one line

------------------------ aborting loop because EDIFF is reached ----------------------------------------

  FORCE on cell =-STRESS in cart. coord.  units (eV):
  Direction    XX          YY          ZZ          XY          YZ          ZX
  Alpha Z     4.40202     4.40202     4.40202
  Ewald     -90.96023   -90.96023   -83.26083    -0.00000     0.00000     0.00000
  Hartree     0.55017     0.55017     1.40399    -0.00000    -0.00000    -0.00000
  E(xc)     -25.41429   -25.41429   -25.37320    -0.00000     0.00000     0.00000
  Local     -11.07931   -11.07931   -17.58978    -0.00002    -0.00002    -0.00002
  n-local    76.84149    76.85964    76.57513     1.04977    -0.30550    -0.54436
  augment   -12.09555   -12.09555   -12.00417     0.00002     0.00002     0.00002
  Kinetic    57.41432    57.67967    56.43024     3.26387    -1.77872    -3.49130
  Fock        0.00000     0.00000     0.00000     0.00000     0.00000     0.00000
  Total      -0.19963    -0.19963     0.58340    -0.00000     0.00000     0.00000
  in kB     -10.45645   -10.45645    30.55717    -0.00000     0.00000     0.00000

 VOLUME and BASIS-vectors are now :
  energy-cutoff  :      350.00
  volume of cell :       30.59
      direct lattice vectors                 reciprocal lattice vectors
    -2.450000000  2.450000000  1.274000000     0.000000000  0.204081633  0.392464678
     2.450000000 -2.450000000  1.274000000     0.204081633  0.000000000  0.392464678
     2.450000000  2.450000000 -1.274000000     0.204081633  0.204081633 -0.000000000

  length of vectors
     3.691622408  3.691622408  3.691622408     0.442354876  0.442354876  0.288615013

 FORCES acting on ions
    electron-ion (+dipol)            ewald-force                    non-local-force                 convergence-correction
   -.183E-06 0.183E-06 0.228E-13   0.198E-14 0.156E-15 0.342E-17   0.298E-16 -.327E-16 0.330E-17   0.622E-10 -.622E-10 -.412E-16
   0.183E-06 -.183E-06 -.138E-13   -.185E-14 0.943E-16 0.891E-15   -.343E-16 0.212E-16 0.640E-17   -.622E-10 0.622E-10 0.222E-17
   -.167E-13 -.188E-14 0.906E-14   0.139E-15 0.250E-15 0.894E-15   -.451E-17 -.114E-16 0.970E-17   0.748E-16 -.800E-16 -.390E-16

 POSITION                                       TOTAL-FORCE (eV/Angst)
      2.45000      0.00000      0.63700         0.000000      0.000000      0.000000
      0.00000      0.00000      0.00000        -0.000000     -0.000000     -0.000000
    total drift:                               -0.000000     -0.000000      0.000000

  FREE ENERGIE OF THE ION-ELECTRON SYSTEM (eV)
  free  energy   TOTEN  =       -10.24872343 eV

  energy  without entropy=      -10.23203190  energy(sigma->0) =      -10.24037767

 reached required accuracy - stopping structural energy minimisation
 writing wavefunctions