 vasp.5.4.4.18Apr17-6-g9f103f2a35 (build Dec 09 2018 21:25:21) complex

 executed on IFC18.0.1.163_CrayMP date 2019.03.20  09:05:18

 INCAR:
 POTCAR:   PAW_PBE Si 05Jan2001

 POTCAR:   PAW_PBE Si 05Jan2001
   VRHFIN =Si: s2p2

   TITEL  = PAW_PBE Si 05Jan2001
   POMASS =   28.085; ZVAL   =    4.000    mass and valenz
   ENMAX  =  245.345; ENMIN  =  184.009 eV
   QCUT   =   -4.246; QGAM   =    8.493    optimization parameters

   Description
     l     E      TYP  RCUT    TYP  RCUT
     0   .000     23  1.900
     0   .000     23  1.900
     1   .000     23  1.900
     1   .000     23  1.900
     2   .000      7  1.900

 PAW_PBE Si 05Jan2001                   :

 POSCAR: Si2
  positions in direct lattice
 exchange correlation table for  LEXCH =        8
   RHO(1)=    0.500       N(1)  =     2000
   RHO(2)=  100.500       N(2)  =     4000

 ion  position               nearest neighbor table
   1  0.250  0.750  0.500-   2 2.53   2 2.53   2 2.53   2 2.53   2 3.11   2 3.11   2 3.11   2 3.11

   2  0.000  0.000  0.000-   1 2.53   1 2.53   1 2.53   1 2.53   1 3.11   1 3.11   1 3.11   1 3.11

  LATTYP: Found a body centered tetragonal cell.
 ALAT       =     4.9000000000
 C/A-ratio  =     0.5200000000

  Lattice vectors:

 A1 = (  -2.4500000000,   2.4500000000,   1.2740000000)
 A2 = (   2.4500000000,  -2.4500000000,   1.2740000000)
 A3 = (   2.4500000000,   2.4500000000,  -1.2740000000)

Analysis of symmetry for initial positions (statically):
 Subroutine PRICEL returns:
 Original cell was already a primitive cell.

 Routine SETGRP: Setting up the symmetry group for a
 body centered tetragonal supercell.

 Subroutine GETGRP returns: Found 16 space group operations
 (whereof  8 operations were pure point group operations)
 out of a pool of 16 trial point group operations.

The static configuration has the point symmetry D_2d.
 The point group associated with its full space group is D_4h.

Analysis of symmetry for dynamics (positions and initial velocities):
 Subroutine PRICEL returns:
 Original cell was already a primitive cell.

 Routine SETGRP: Setting up the symmetry group for a
 body centered tetragonal supercell.

 Subroutine GETGRP returns: Found 16 space group operations
 (whereof  8 operations were pure point group operations)
 out of a pool of 16 trial point group operations.

The dynamic configuration has the point symmetry D_2d.
 The point group associated with its full space group is D_4h.

 Subroutine INISYM returns: Found 16 space group operations
 (whereof  8 operations are pure point group operations),
 and found     1 'primitive' translations

 KPOINTS: Automatic kpoint scheme

Automatic generation of k-mesh.
Space group operators:
 irot       det(A)        alpha          n_x          n_y          n_z        tau_x        tau_y        tau_z
    1     1.000000     0.000000     1.000000     0.000000     0.000000     0.000000     0.000000     0.000000
    2    -1.000000    90.000000    -0.000000    -0.000000    -1.000000     0.000000     0.000000     0.000000
    3     1.000000   180.000000    -0.000000    -0.000000    -1.000000     0.000000     0.000000     0.000000
    4    -1.000000    90.000000    -0.000000     0.000000     1.000000     0.000000     0.000000     0.000000
    5    -1.000000   180.000000     0.000000    -1.000000     0.000000     0.000000     0.000000     0.000000
    6     1.000000   180.000000     0.707107     0.707107    -0.000000     0.000000     0.000000     0.000000
    7    -1.000000   180.000000     1.000000     0.000000     0.000000     0.000000     0.000000     0.000000
    8     1.000000   180.000000     0.707107    -0.707107     0.000000     0.000000     0.000000     0.000000
    9    -1.000000     0.000000     1.000000     0.000000     0.000000     0.250000     0.750000     0.500000
   10     1.000000    90.000000    -0.000000    -0.000000    -1.000000     0.250000     0.750000     0.500000
   11    -1.000000   180.000000    -0.000000    -0.000000    -1.000000     0.250000     0.750000     0.500000
   12     1.000000    90.000000    -0.000000     0.000000     1.000000     0.250000     0.750000     0.500000
   13     1.000000   180.000000     0.000000    -1.000000     0.000000     0.250000     0.750000     0.500000
   14    -1.000000   180.000000     0.707107     0.707107    -0.000000     0.250000     0.750000     0.500000
   15     1.000000   180.000000     1.000000     0.000000     0.000000     0.250000     0.750000     0.500000
   16    -1.000000   180.000000     0.707107    -0.707107     0.000000     0.250000     0.750000     0.500000

 Subroutine IBZKPT returns following result:

 Found    126 irreducible k-points:

 Following reciprocal coordinates:
            Coordinates               Weight
  0.000000  0.000000  0.000000      1.000000
  0.090909 -0.000000  0.000000      8.000000
  0.181818 -0.000000  0.000000      8.000000
  0.272727 -0.000000  0.000000      8.000000
  0.363636 -0.000000  0.000000      8.000000
  0.454545 -0.000000 -0.000000      8.000000
  0.090909  0.090909  0.000000      8.000000
  0.181818  0.090909 -0.000000     16.000000
  0.272727  0.090909  0.000000     16.000000
  0.363636  0.090909  0.000000     16.000000
  0.454545  0.090909 -0.000000     16.000000
 -0.454545  0.090909 -0.000000     16.000000
 -0.363636  0.090909  0.000000     16.000000
 -0.272727  0.090909  0.000000     16.000000
 -0.181818  0.090909  0.000000     16.000000
 -0.090909  0.090909  0.000000      4.000000
  0.181818  0.181818  0.000000      8.000000
  0.272727  0.181818  0.000000     16.000000
  0.363636  0.181818 -0.000000     16.000000
  0.454545  0.181818 -0.000000     16.000000
 -0.454545  0.181818 -0.000000     16.000000
 -0.363636  0.181818  0.000000     16.000000
 -0.272727  0.181818 -0.000000     16.000000
 -0.181818  0.181818  0.000000      4.000000
  0.272727  0.272727 -0.000000      8.000000
  0.363636  0.272727 -0.000000     16.000000
  0.454545  0.272727  0.000000     16.000000
 -0.454545  0.272727  0.000000     16.000000
 -0.363636  0.272727 -0.000000     16.000000
 -0.272727  0.272727 -0.000000      4.000000
  0.363636  0.363636  0.000000      8.000000
  0.454545  0.363636 -0.000000     16.000000
 -0.454545  0.363636 -0.000000     16.000000
 -0.363636  0.363636  0.000000      4.000000
  0.454545  0.454545 -0.000000      8.000000
 -0.454545  0.454545 -0.000000      4.000000
  0.090909  0.090909  0.090909      8.000000
  0.181818  0.090909  0.090909     16.000000
  0.272727  0.090909  0.090909     16.000000
  0.363636  0.090909  0.090909     16.000000
 -0.090909  0.090909  0.090909      4.000000
  0.181818  0.181818  0.090909      8.000000
  0.272727  0.181818  0.090909     16.000000
  0.363636  0.181818  0.090909     16.000000
  0.454545  0.181818  0.090909     16.000000
 -0.454545  0.181818  0.090909     16.000000
 -0.363636  0.181818  0.090909      8.000000
 -0.181818  0.181818  0.090909      8.000000
 -0.090909  0.181818  0.090909      8.000000
  0.272727  0.272727  0.090909      8.000000
  0.363636  0.272727  0.090909     16.000000
  0.454545  0.272727  0.090909     16.000000
 -0.454545  0.272727  0.090909      8.000000
 -0.272727  0.272727  0.090909      8.000000
 -0.181818  0.272727  0.090909     16.000000
 -0.090909  0.272727  0.090909      8.000000
  0.363636  0.363636  0.090909      8.000000
  0.454545  0.363636  0.090909      8.000000
 -0.363636  0.363636  0.090909      8.000000
 -0.272727  0.363636  0.090909     16.000000
[...]
 -0.272727  0.454545  0.272727      8.000000
 -0.454545 -0.454545  0.272727      8.000000
 -0.363636 -0.454545  0.272727     16.000000
 -0.272727 -0.454545  0.272727      8.000000
 -0.363636 -0.363636  0.272727      8.000000
 -0.272727 -0.363636  0.272727      8.000000
 -0.272727 -0.272727  0.272727      2.000000
 -0.363636  0.363636  0.363636      4.000000
 -0.454545  0.454545  0.363636      8.000000
 -0.363636  0.454545  0.363636      8.000000
 -0.454545 -0.454545  0.363636      8.000000
 -0.363636 -0.454545  0.363636      8.000000
 -0.363636 -0.363636  0.363636      2.000000
 -0.454545  0.454545  0.454545      4.000000
 -0.454545 -0.454545  0.454545      2.000000

 Following cartesian coordinates:
            Coordinates               Weight
  0.000000  0.000000  0.000000      1.000000
  0.000000  0.018553  0.035679      8.000000
  0.000000  0.037106  0.071357      8.000000
  0.000000  0.055659  0.107036      8.000000
  0.000000  0.074212  0.142714      8.000000
 -0.000000  0.092764  0.178393      8.000000
  0.018553  0.018553  0.071357      8.000000
  0.018553  0.037106  0.107036     16.000000
  0.018553  0.055659  0.142714     16.000000
  0.018553  0.074212  0.178393     16.000000
  0.018553  0.092764  0.214072     16.000000
  0.018553 -0.092764 -0.142714     16.000000
  0.018553 -0.074212 -0.107036     16.000000
  0.018553 -0.055659 -0.071357     16.000000
  0.018553 -0.037106 -0.035679     16.000000
  0.018553 -0.018553  0.000000      4.000000
  0.037106  0.037106  0.142714      8.000000
  0.037106  0.055659  0.178393     16.000000
  0.037106  0.074212  0.214072     16.000000
  0.037106  0.092764  0.249750     16.000000
  0.037106 -0.092764 -0.107036     16.000000
  0.037106 -0.074212 -0.071357     16.000000
  0.037106 -0.055659 -0.035679     16.000000
  0.037106 -0.037106  0.000000      4.000000
  0.055659  0.055659  0.214072      8.000000
  0.055659  0.074212  0.249750     16.000000
  0.055659  0.092764  0.285429     16.000000
  0.055659 -0.092764 -0.071357     16.000000
  0.055659 -0.074212 -0.035679     16.000000
  0.055659 -0.055659  0.000000      4.000000
  0.074212  0.074212  0.285429      8.000000
  0.074212  0.092764  0.321107     16.000000
  0.074212 -0.092764 -0.035679     16.000000
  0.074212 -0.074212  0.000000      4.000000
  0.092764  0.092764  0.356786      8.000000
  0.092764 -0.092764 -0.000000      4.000000
  0.037106  0.037106  0.071357      8.000000
  0.037106  0.055659  0.107036     16.000000
  0.037106  0.074212  0.142714     16.000000
  0.037106  0.092764  0.178393     16.000000
  0.037106  0.000000  0.000000      4.000000
  0.055659  0.055659  0.142714      8.000000
  0.055659  0.074212  0.178393     16.000000
  0.055659  0.092764  0.214072     16.000000
  0.055659  0.111317  0.249750     16.000000
  0.055659 -0.074212 -0.107036     16.000000
  0.055659 -0.055659 -0.071357      8.000000
  0.055659 -0.018553 -0.000000      8.000000
  0.055659 -0.000000  0.035679      8.000000
  0.074212  0.074212  0.214072      8.000000
  0.074212  0.092764  0.249750     16.000000
  0.074212  0.111317  0.285429     16.000000
  0.074212 -0.074212 -0.071357      8.000000
  0.074212 -0.037106  0.000000      8.000000
  0.074212 -0.018553  0.035679     16.000000
  0.074212  0.000000  0.071357      8.000000
  0.092764  0.092764  0.285429      8.000000
  0.092764  0.111317  0.321107      8.000000
  0.092764 -0.055659  0.000000      8.000000
  0.092764 -0.037106  0.035679     16.000000
[...]
  0.148423 -0.000000  0.071357      8.000000
 -0.037106 -0.037106 -0.356786      8.000000
 -0.037106 -0.018553 -0.321107     16.000000
 -0.037106  0.000000 -0.285429      8.000000
 -0.018553 -0.018553 -0.285429      8.000000
 -0.018553 -0.000000 -0.249750      8.000000
[...]
 k-point 28 :  -0.4545 0.2727 0.0000  plane waves:     130
 k-point 29 :  -0.3636 0.2727-0.0000  plane waves:     129
 k-point 30 :  -0.2727 0.2727-0.0000  plane waves:     135
 k-point 31 :   0.3636 0.3636 0.0000  plane waves:     126
 k-point 32 :   0.4545 0.3636-0.0000  plane waves:     125
 k-point 33 :  -0.4545 0.3636-0.0000  plane waves:     130
 k-point 34 :  -0.3636 0.3636 0.0000  plane waves:     135
 k-point 35 :   0.4545 0.4545-0.0000  plane waves:     128
 k-point 36 :  -0.4545 0.4545-0.0000  plane waves:     135
 k-point 37 :   0.0909 0.0909 0.0909  plane waves:     129
 k-point 38 :   0.1818 0.0909 0.0909  plane waves:     128
 k-point 39 :   0.2727 0.0909 0.0909  plane waves:     129
 k-point 40 :   0.3636 0.0909 0.0909  plane waves:     124
 k-point 41 :  -0.0909 0.0909 0.0909  plane waves:     131
 k-point 42 :   0.1818 0.1818 0.0909  plane waves:     133
 k-point 43 :   0.2727 0.1818 0.0909  plane waves:     126
 k-point 44 :   0.3636 0.1818 0.0909  plane waves:     126
 k-point 45 :   0.4545 0.1818 0.0909  plane waves:     129
 k-point 46 :  -0.4545 0.1818 0.0909  plane waves:     128
 k-point 47 :  -0.3636 0.1818 0.0909  plane waves:     130
 k-point 48 :  -0.1818 0.1818 0.0909  plane waves:     133
 k-point 49 :  -0.0909 0.1818 0.0909  plane waves:     131
 k-point 50 :   0.2727 0.2727 0.0909  plane waves:     127
 k-point 51 :   0.3636 0.2727 0.0909  plane waves:     127
 k-point 52 :   0.4545 0.2727 0.0909  plane waves:     130
 k-point 53 :  -0.4545 0.2727 0.0909  plane waves:     128
 k-point 54 :  -0.2727 0.2727 0.0909  plane waves:     132
 k-point 55 :  -0.1818 0.2727 0.0909  plane waves:     130
 k-point 56 :  -0.0909 0.2727 0.0909  plane waves:     129
 k-point 57 :   0.3636 0.3636 0.0909  plane waves:     128
 k-point 58 :   0.4545 0.3636 0.0909  plane waves:     126
 k-point 59 :  -0.3636 0.3636 0.0909  plane waves:     128
 k-point 60 :  -0.2727 0.3636 0.0909  plane waves:     130
[...]
 k-point 85 :  -0.1818 0.1818 0.1818  plane waves:     129
 k-point 86 :   0.2727 0.2727 0.1818  plane waves:     130
 k-point 87 :   0.3636 0.2727 0.1818  plane waves:     128
 k-point 88 :  -0.2727 0.2727 0.1818  plane waves:     126
 k-point 89 :  -0.1818 0.2727 0.1818  plane waves:     132
 k-point 90 :  -0.3636 0.3636 0.1818  plane waves:     129
 k-point 91 :  -0.2727 0.3636 0.1818  plane waves:     128
 k-point 92 :  -0.1818 0.3636 0.1818  plane waves:     129
 k-point 93 :  -0.4545 0.4545 0.1818  plane waves:     129
 k-point 94 :  -0.3636 0.4545 0.1818  plane waves:     130
 k-point 95 :  -0.2727 0.4545 0.1818  plane waves:     129
 k-point 96 :  -0.1818 0.4545 0.1818  plane waves:     128
 k-point 97 :  -0.4545-0.4545 0.1818  plane waves:     130
 k-point 98 :  -0.3636-0.4545 0.1818  plane waves:     129
 k-point 99 :  -0.2727-0.4545 0.1818  plane waves:     126
 k-point ** :  -0.1818-0.4545 0.1818  plane waves:     124
 k-point ** :  -0.3636-0.3636 0.1818  plane waves:     127
 k-point ** :  -0.2727-0.3636 0.1818  plane waves:     123
 k-point ** :  -0.1818-0.3636 0.1818  plane waves:     121
 k-point ** :  -0.2727-0.2727 0.1818  plane waves:     120
 k-point ** :  -0.1818-0.2727 0.1818  plane waves:     115
 k-point ** :  -0.1818-0.1818 0.1818  plane waves:     127
 k-point ** :  -0.2727 0.2727 0.2727  plane waves:     125
 k-point ** :  -0.3636 0.3636 0.2727  plane waves:     129
 k-point ** :  -0.2727 0.3636 0.2727  plane waves:     129
 k-point ** :  -0.4545 0.4545 0.2727  plane waves:     128
 k-point ** :  -0.3636 0.4545 0.2727  plane waves:     129
 k-point ** :  -0.2727 0.4545 0.2727  plane waves:     131
 k-point ** :  -0.4545-0.4545 0.2727  plane waves:     131
 k-point ** :  -0.3636-0.4545 0.2727  plane waves:     129
 k-point ** :  -0.2727-0.4545 0.2727  plane waves:     127
 k-point ** :  -0.3636-0.3636 0.2727  plane waves:     123
 k-point ** :  -0.2727-0.3636 0.2727  plane waves:     122
 k-point ** :  -0.2727-0.2727 0.2727  plane waves:     122
 k-point ** :  -0.3636 0.3636 0.3636  plane waves:     133
 k-point ** :  -0.4545 0.4545 0.3636  plane waves:     131
 k-point ** :  -0.3636 0.4545 0.3636  plane waves:     131
 k-point ** :  -0.4545-0.4545 0.3636  plane waves:     128
 k-point ** :  -0.3636-0.4545 0.3636  plane waves:     126
 k-point ** :  -0.3636-0.3636 0.3636  plane waves:     114
 k-point ** :  -0.4545 0.4545 0.4545  plane waves:     128
 k-point ** :  -0.4545-0.4545 0.4545  plane waves:     126

 maximum and minimum number of plane-waves per node :       135      114

 maximum number of plane-waves:       135
 maximum index in each direction:
   IXMAX=    4   IYMAX=    4   IZMAX=    3
   IXMIN=   -4   IYMIN=   -4   IZMIN=   -4

 serial   3D FFT for wavefunctions
 parallel 3D FFT for charge:
    minimum data exchange during FFTs selected (reduces bandwidth)

 Broyden mixing: mesh for mixing (old mesh)
   NGX =  7   NGY =  7   NGZ =  7
  (NGX  = 24   NGY  = 24   NGZ  = 24)
  gives a total of    343 points

 initial charge density was supplied:
 charge density of overlapping atoms calculated
 number of electron       8.0000000 magnetization
 keeping initial charge density in first step

 Maximum index for augmentation-charges          241 (set IRDMAX)

 First call to EWALD:  gamma=   0.567
 Maximum number of real-space cells 4x 4x 3
 Maximum number of reciprocal cells 3x 3x 3

--------------------------------------- Iteration      1(   1)  ---------------------------------------

 eigenvalue-minimisations  :  2128
 total energy-change (2. order) :-0.5398940E+01  (-0.1724795E+03)
 number of electron       8.0000000 magnetization
 augmentation part        8.0000000 magnetization

 Free energy of the ion-electron system (eV)
  alpha Z        PSCENC =         4.40202223
  Ewald energy   TEWEN  =      -265.18101312
  -Hartree energ DENC   =        -2.30415367
  -exchange      EXHF   =         0.00000000
  -V(xc)+E(xc)   XCENC  =       -17.81530915
  PAW double counting   =        65.95520812      -30.76852678
  entropy T*S    EENTRO =        -0.01214085
  eigenvalues    EBANDS =        34.23313717
  atomic energy  EATOM  =       206.09183643
  Solvation  Ediel_sol  =         0.00000000
  free energy    TOTEN  =        -5.39893962 eV

  energy without entropy =       -5.38679877  energy(sigma->0) =       -5.39286920

[...]

 Broyden mixing:
  rms(total) = 0.14983E+00    rms(broyden)= 0.14972E+00
  rms(prec ) = 0.33693E+00
  weight for this iteration     100.00

[...]

 eigenvalue-minimisations  :  2432
 total energy-change (2. order) : 0.8548307E-02  (-0.1792051E-03)
 number of electron       8.0000045 magnetization
 augmentation part       -0.4665903 magnetization

[...]

 eigenvalues of (default mixing * dielectric matrix)
  average eigenvalue GAMMA=   2.6609
  2.6609

[...]

 average (electrostatic) potential at core
  the test charge radii are     0.9892
  (the norm of the test charge is              1.0000)
       1 -80.5596       2 -80.5596

 E-fermi :   9.1537     XC(G=0): -10.8939     alpha+bet :-15.6819

 k-point     1 :       0.0000    0.0000    0.0000
  band No.  band energies     occupation
      1      -4.6156      2.00000
      2       6.2015      2.00000
      3       6.3074      2.00000
      4       6.3074      2.00000
      5      10.6564      0.00000
      6      17.0745      0.00000
      7      17.3785      0.00000
      8      17.3786      0.00000

[...]

 soft charge-density along one line, spin component           1
         0         1         2         3         4         5         6         7         8         9
 total charge-density along one line

------------------------ aborting loop because EDIFF is reached ----------------------------------------

  FORCE on cell =-STRESS in cart. coord.  units (eV):
  Direction    XX          YY          ZZ          XY          YZ          ZX
  Alpha Z     4.40202     4.40202     4.40202
  Ewald     -90.96023   -90.96023   -83.26083    -0.00000     0.00000     0.00000
  Hartree     0.55860     0.55860     1.39271     0.00000    -0.00000    -0.00000
  E(xc)     -25.42849   -25.42849   -25.38374     0.00012     0.00006     0.00006
  Local     -11.32683   -11.32683   -17.58372    -0.00003    -0.00012    -0.00012
  n-local    77.49125    77.19469    76.98114     1.11387    -0.38652    -0.51492
  augment   -11.98605   -11.98605   -11.88571     0.00008     0.00008     0.00008
  Kinetic    59.45228    54.65757    56.38429     3.68363    -1.71387    -3.35997
  Fock        0.00000     0.00000     0.00000     0.00000     0.00000     0.00000
  Total      -0.34308    -0.34308     1.04616    -0.00000     0.00000     0.00000
  in kB     -17.96997   -17.96997    54.79573    -0.00000     0.00000     0.00000

 VOLUME and BASIS-vectors are now :
  energy-cutoff  :      150.00
  volume of cell :       30.59
      direct lattice vectors                 reciprocal lattice vectors
    -2.450000000  2.450000000  1.274000000     0.000000000  0.204081633  0.392464678
     2.450000000 -2.450000000  1.274000000     0.204081633  0.000000000  0.392464678
     2.450000000  2.450000000 -1.274000000     0.204081633  0.204081633 -0.000000000

[...]

 FORCES acting on ions
    electron-ion (+dipol)            ewald-force                    non-local-force                 convergence-correction
   -.283E-04 0.283E-04 -.178E-14   0.198E-14 0.156E-15 0.342E-17   0.347E-16 -.486E-16 0.611E-17   -.349E-06 0.349E-06 -.974E-16
   0.283E-04 -.283E-04 -.657E-14   -.185E-14 0.943E-16 0.891E-15   -.238E-16 0.178E-16 -.231E-17   0.349E-06 -.349E-06 0.378E-16
   -.112E-13 -.144E-14 -.834E-14   0.139E-15 0.250E-15 0.894E-15   0.108E-16 -.308E-16 0.380E-17   0.101E-15 0.175E-15 -.596E-16

 POSITION                                       TOTAL-FORCE (eV/Angst)
      2.45000      0.00000      0.63700        -0.000000      0.000000     -0.000000
      0.00000      0.00000      0.00000         0.000000     -0.000000      0.000000
    total drift:                               -0.000000     -0.000000     -0.000000

  FREE ENERGIE OF THE ION-ELECTRON SYSTEM (eV)
  free  energy   TOTEN  =       -10.12111843 eV

  energy  without entropy=      -10.10557976  energy(sigma->0) =      -10.11334910

[...]

 eigenvalues of (default mixing * dielectric matrix)
  average eigenvalue GAMMA=   1.3696
  2.2202  0.5191

[...]

 d Force = 0.0000000E+00[ 0.000E+00, 0.000E+00]  d Energy = 0.1586017E-01-0.159E-01
 d Force = 0.0000000E+00[ 0.000E+00, 0.000E+00]  d Ewald  =-0.6252977E+00 0.625E+00

 Steepest descent step on ions:
 trial-energy change:   -0.015860  1 .order   -0.016279   -0.032078   -0.000480
  (g-gl).g = 0.321E-01      g.g   = 0.321E-01  gl.gl    = 0.000E+00
 g(Force)  = 0.476E-43   g(Stress)= 0.321E-01 ortho     = 0.000E+00
 gamma     =   0.00000
 trial     =   1.00000
 opt step  =   1.01519  (harmonic =   1.01519) maximal distance =0.00000000
 next E    =   -10.137401   (d E  =  -0.01628)

[...]

 d Force = 0.0000000E+00[ 0.000E+00, 0.000E+00]  d Energy = 0.1066829E-04-0.107E-04
 d Force = 0.0000000E+00[ 0.000E+00, 0.000E+00]  d Ewald  =-0.1988974E-01 0.199E-01

[...]

 d Force = 0.0000000E+00[ 0.000E+00, 0.000E+00]  d Energy =-0.5679217E-05 0.568E-05
 d Force = 0.0000000E+00[ 0.000E+00, 0.000E+00]  d Ewald  =-0.7644685E-02 0.764E-02

[...]

 d Force = 0.0000000E+00[ 0.000E+00, 0.000E+00]  d Energy = 0.1833586E-05-0.183E-05
 d Force = 0.0000000E+00[ 0.000E+00, 0.000E+00]  d Ewald  = 0.4289113E-02-0.429E-02

[...]

 Broyden mixing:
  rms(total) = 0.25044E-04    rms(broyden)= 0.23011E-04
  rms(prec ) = 0.69935E-04
  weight for this iteration     100.00

[...]

 Broyden mixing:
  rms(total) = 0.16890E-04    rms(broyden)= 0.13739E-04
  rms(prec ) = 0.41806E-04
  weight for this iteration     100.00
  WARNING: grid for Broyden might be to small

[...]

 eigenvalue-minimisations  :  1008
 total energy-change (2. order) : 0.1407727E-09  (-0.2070800E-11)
 number of electron       8.0000020 magnetization
 augmentation part       -0.4689909 magnetization

[...]

 Broyden mixing:
  rms(total) = 0.97995E-05    rms(broyden)= 0.42680E-06
  rms(prec ) = 0.12979E-05
  weight for this iteration     100.00
  WARNING: grid for Broyden might be to small

[...]

--------------------------------------- Iteration     15(   2)  ---------------------------------------

 eigenvalue-minimisations  :  1008
 total energy-change (2. order) :-0.1414008E-08  (-0.1240119E-12)
 number of electron       8.0000020 magnetization
 augmentation part       -0.4689909 magnetization

 Free energy of the ion-electron system (eV)
  alpha Z        PSCENC =         4.36405661
  Ewald energy   TEWEN  =      -264.52589315
  -Hartree energ DENC   =        -2.50808228
  -exchange      EXHF   =         0.00000000
  -V(xc)+E(xc)   XCENC  =       -17.58673983
  PAW double counting   =        72.18214685      -37.10385450
  entropy T*S    EENTRO =        -0.01613513
  eigenvalues    EBANDS =        28.96566449
  atomic energy  EATOM  =       206.09183643
  Solvation  Ediel_sol  =         0.00000000
  free energy    TOTEN  =       -10.13700052 eV

  energy without entropy =      -10.12086539  energy(sigma->0) =      -10.12893296

 average (electrostatic) potential at core
  the test charge radii are     0.9892
  (the norm of the test charge is              1.0000)
       1 -80.6680       2 -80.6680

 E-fermi :   9.0594     XC(G=0): -10.8598     alpha+bet :-15.5467

[...]

 k-point   126 :      -0.4545   -0.4545    0.4545
  band No.  band energies     occupation
      1       0.7687      2.00000
      2       0.7838      2.00000
      3       2.4554      2.00000
      4       2.4554      2.00000
      5      12.2069      0.00000
      6      18.6512      0.00000
      7      21.2169      0.00000
      8      21.2169      0.00000

 soft charge-density along one line, spin component           1
         0         1         2         3         4         5         6         7         8         9
 total charge-density along one line

------------------------ aborting loop because EDIFF is reached ----------------------------------------

  FORCE on cell =-STRESS in cart. coord.  units (eV):
  Direction    XX          YY          ZZ          XY          YZ          ZX
  Alpha Z     4.36406     4.36406     4.36406
  Ewald     -88.78811   -88.78811   -86.94991     0.00000    -0.00000    -0.00000
  Hartree     0.69788     0.69788     1.11232     0.00000    -0.00000    -0.00000
  E(xc)     -25.39062   -25.39062   -25.28878     0.00011     0.00006     0.00006
  Local     -13.45930   -13.45930   -13.55215    -0.00004    -0.00012    -0.00012
  n-local    77.79309    77.44967    76.06238     1.18000    -0.43846    -0.59622
  augment   -12.01068   -12.01068   -11.81327     0.00008     0.00008     0.00008
  Kinetic    59.31944    54.45108    56.00631     3.58255    -1.55441    -3.24544
  Fock        0.00000     0.00000     0.00000     0.00000     0.00000     0.00000
  Total      -0.08012    -0.08012    -0.05905     0.00000    -0.00000    -0.00000
  in kB      -4.16058    -4.16058    -3.06617     0.00000    -0.00000    -0.00000

 VOLUME and BASIS-vectors are now :
  energy-cutoff  :      150.00
  volume of cell :       30.85
      direct lattice vectors                 reciprocal lattice vectors
    -2.428800523  2.428800523  1.307614588     0.000000000  0.205862933  0.382375667
     2.428800523 -2.428800523  1.307614588     0.205862933  0.000000000  0.382375667
     2.428800523  2.428800523 -1.307614588     0.205862933  0.205862933  0.000000000

  length of vectors
     3.675323098  3.675323098  3.675323098     0.434270305  0.434270305  0.291134152

 FORCES acting on ions
    electron-ion (+dipol)            ewald-force                    non-local-force                 convergence-correction
   -.252E-04 0.252E-04 0.318E-14   0.407E-14 -.464E-15 0.223E-14   -.125E-16 0.430E-16 -.149E-16   0.728E-10 -.728E-10 -.358E-15
   0.252E-04 -.252E-04 -.559E-14   -.399E-14 0.545E-15 -.124E-14   0.438E-16 -.568E-16 0.234E-16   -.728E-10 0.728E-10 -.107E-15
   -.987E-14 0.166E-15 -.241E-14   0.803E-16 0.811E-16 0.987E-15   0.313E-16 -.138E-16 0.851E-17   -.177E-15 0.166E-15 -.465E-15

 POSITION                                       TOTAL-FORCE (eV/Angst)
      2.42880      0.00000      0.65381         0.000000      0.000000     -0.000000
      0.00000     -0.00000      0.00000        -0.000000     -0.000000      0.000000
    total drift:                               -0.000000      0.000000     -0.000000

  FREE ENERGIE OF THE ION-ELECTRON SYSTEM (eV)
  free  energy   TOTEN  =       -10.13700052 eV

  energy  without entropy=      -10.12086539  energy(sigma->0) =      -10.12893296

 d Force = 0.0000000E+00[ 0.000E+00, 0.000E+00]  d Energy = 0.1440299E-08-0.144E-08
 d Force = 0.0000000E+00[ 0.000E+00, 0.000E+00]  d Ewald  = 0.5482513E-05-0.548E-05

 writing wavefunctions