 vasp.5.4.4.18Apr17-6-g9f103f2a35 (build Dec 09 2018 21:25:21) complex

 executed on IFC18.0.1.163_CrayMP date 2019.03.20  09:16:34

 INCAR:
 POTCAR:   PAW_PBE Si 05Jan2001

 POTCAR:   PAW_PBE Si 05Jan2001
   VRHFIN =Si: s2p2

   TITEL  = PAW_PBE Si 05Jan2001
   POMASS =   28.085; ZVAL   =    4.000    mass and valenz
   ENMAX  =  245.345; ENMIN  =  184.009 eV
   QCUT   =   -4.246; QGAM   =    8.493    optimization parameters

   Description
     l     E      TYP  RCUT    TYP  RCUT
     0   .000     23  1.900
     0   .000     23  1.900
     1   .000     23  1.900
     1   .000     23  1.900
     2   .000      7  1.900

 PAW_PBE Si 05Jan2001                   :

 POSCAR: Si2
  positions in direct lattice
 exchange correlation table for  LEXCH =        8
   RHO(1)=    0.500       N(1)  =     2000
   RHO(2)=  100.500       N(2)  =     4000

 ion  position               nearest neighbor table
   1  0.250  0.750  0.500-   2 2.53   2 2.53   2 2.53   2 2.53   2 3.11   2 3.11   2 3.11   2 3.11

   2  0.000  0.000  0.000-   1 2.53   1 2.53   1 2.53   1 2.53   1 3.11   1 3.11   1 3.11   1 3.11

  LATTYP: Found a body centered tetragonal cell.
 ALAT       =     4.9000000000
 C/A-ratio  =     0.5200000000

  Lattice vectors:

 A1 = (  -2.4500000000,   2.4500000000,   1.2740000000)
 A2 = (   2.4500000000,  -2.4500000000,   1.2740000000)
 A3 = (   2.4500000000,   2.4500000000,  -1.2740000000)

Analysis of symmetry for initial positions (statically):
 Subroutine PRICEL returns:
 Original cell was already a primitive cell.

 Routine SETGRP: Setting up the symmetry group for a
 body centered tetragonal supercell.

 Subroutine GETGRP returns: Found 16 space group operations
 (whereof  8 operations were pure point group operations)
 out of a pool of 16 trial point group operations.

The static configuration has the point symmetry D_2d.
 The point group associated with its full space group is D_4h.

Analysis of symmetry for dynamics (positions and initial velocities):
 Subroutine PRICEL returns:
 Original cell was already a primitive cell.

 Routine SETGRP: Setting up the symmetry group for a
 body centered tetragonal supercell.

 Subroutine GETGRP returns: Found 16 space group operations
 (whereof  8 operations were pure point group operations)
 out of a pool of 16 trial point group operations.

The dynamic configuration has the point symmetry D_2d.
 The point group associated with its full space group is D_4h.

 Subroutine INISYM returns: Found 16 space group operations
 (whereof  8 operations are pure point group operations),
 and found     1 'primitive' translations

 KPOINTS: Automatic kpoint scheme

Automatic generation of k-mesh.
Space group operators:
 irot       det(A)        alpha          n_x          n_y          n_z        tau_x        tau_y        tau_z
    1     1.000000     0.000000     1.000000     0.000000     0.000000     0.000000     0.000000     0.000000
    2    -1.000000    90.000000    -0.000000    -0.000000    -1.000000     0.000000     0.000000     0.000000
    3     1.000000   180.000000    -0.000000    -0.000000    -1.000000     0.000000     0.000000     0.000000
    4    -1.000000    90.000000    -0.000000     0.000000     1.000000     0.000000     0.000000     0.000000
    5    -1.000000   180.000000     0.000000    -1.000000     0.000000     0.000000     0.000000     0.000000
    6     1.000000   180.000000     0.707107     0.707107    -0.000000     0.000000     0.000000     0.000000
    7    -1.000000   180.000000     1.000000     0.000000     0.000000     0.000000     0.000000     0.000000
    8     1.000000   180.000000     0.707107    -0.707107     0.000000     0.000000     0.000000     0.000000
    9    -1.000000     0.000000     1.000000     0.000000     0.000000     0.250000     0.750000     0.500000
   10     1.000000    90.000000    -0.000000    -0.000000    -1.000000     0.250000     0.750000     0.500000
   11    -1.000000   180.000000    -0.000000    -0.000000    -1.000000     0.250000     0.750000     0.500000
   12     1.000000    90.000000    -0.000000     0.000000     1.000000     0.250000     0.750000     0.500000
   13     1.000000   180.000000     0.000000    -1.000000     0.000000     0.250000     0.750000     0.500000
   14    -1.000000   180.000000     0.707107     0.707107    -0.000000     0.250000     0.750000     0.500000
   15     1.000000   180.000000     1.000000     0.000000     0.000000     0.250000     0.750000     0.500000
   16    -1.000000   180.000000     0.707107    -0.707107     0.000000     0.250000     0.750000     0.500000

 Subroutine IBZKPT returns following result:

 Found     75 irreducible k-points:

 Following reciprocal coordinates:
            Coordinates               Weight
  0.000000  0.000000  0.000000      1.000000
  0.111111 -0.000000  0.000000      8.000000
  0.222222  0.000000 -0.000000      8.000000
  0.333333 -0.000000  0.000000      8.000000
  0.444444  0.000000 -0.000000      8.000000
  0.111111  0.111111  0.000000      8.000000
  0.222222  0.111111 -0.000000     16.000000
  0.333333  0.111111  0.000000     16.000000
  0.444444  0.111111  0.000000     16.000000
 -0.444444  0.111111  0.000000     16.000000
 -0.333333  0.111111 -0.000000     16.000000
 -0.222222  0.111111  0.000000     16.000000
 -0.111111  0.111111  0.000000      4.000000
  0.222222  0.222222 -0.000000      8.000000
  0.333333  0.222222  0.000000     16.000000
  0.444444  0.222222  0.000000     16.000000
 -0.444444  0.222222  0.000000     16.000000
 -0.333333  0.222222 -0.000000     16.000000
 -0.222222  0.222222  0.000000      4.000000
  0.333333  0.333333  0.000000      8.000000
  0.444444  0.333333  0.000000     16.000000
 -0.444444  0.333333  0.000000     16.000000
 -0.333333  0.333333  0.000000      4.000000
  0.444444  0.444444 -0.000000      8.000000
 -0.444444  0.444444  0.000000      4.000000
  0.111111  0.111111  0.111111      8.000000
  0.222222  0.111111  0.111111     16.000000
  0.333333  0.111111  0.111111     16.000000
 -0.111111  0.111111  0.111111      4.000000
  0.222222  0.222222  0.111111      8.000000
  0.333333  0.222222  0.111111     16.000000
  0.444444  0.222222  0.111111     16.000000
 -0.444444  0.222222  0.111111      8.000000
 -0.222222  0.222222  0.111111      8.000000
 -0.111111  0.222222  0.111111      8.000000
  0.333333  0.333333  0.111111      8.000000
  0.444444  0.333333  0.111111      8.000000
 -0.333333  0.333333  0.111111      8.000000
 -0.222222  0.333333  0.111111     16.000000
 -0.111111  0.333333  0.111111      8.000000
 -0.444444  0.444444  0.111111      8.000000
 -0.333333  0.444444  0.111111     16.000000
 -0.222222  0.444444  0.111111     16.000000
 -0.111111  0.444444  0.111111      8.000000
 -0.444444 -0.444444  0.111111      8.000000
 -0.333333 -0.444444  0.111111     16.000000
 -0.222222 -0.444444  0.111111     16.000000
 -0.111111 -0.444444  0.111111      8.000000
 -0.333333 -0.333333  0.111111      8.000000
 -0.222222 -0.333333  0.111111     16.000000
 -0.111111 -0.333333  0.111111      8.000000
 -0.222222 -0.222222  0.111111      8.000000
 -0.111111 -0.222222  0.111111      8.000000
 -0.111111 -0.111111  0.111111      2.000000
  0.222222  0.222222  0.222222      8.000000
 -0.222222  0.222222  0.222222      4.000000
 -0.333333  0.333333  0.222222      8.000000
 -0.222222  0.333333  0.222222      8.000000
 -0.444444  0.444444  0.222222      8.000000
 -0.333333  0.444444  0.222222     16.000000
 -0.222222  0.444444  0.222222      8.000000
 -0.444444 -0.444444  0.222222      8.000000
 -0.333333 -0.444444  0.222222     16.000000
 -0.222222 -0.444444  0.222222      8.000000
 -0.333333 -0.333333  0.222222      8.000000
 -0.222222 -0.333333  0.222222      8.000000
 -0.222222 -0.222222  0.222222      2.000000
 -0.333333  0.333333  0.333333      4.000000
 -0.444444  0.444444  0.333333      8.000000
 -0.333333  0.444444  0.333333      8.000000
 -0.444444 -0.444444  0.333333      8.000000
 -0.333333 -0.444444  0.333333      8.000000
 -0.333333 -0.333333  0.333333      2.000000
 -0.444444  0.444444  0.444444      4.000000
 -0.444444 -0.444444  0.444444      2.000000

 Following cartesian coordinates:
            Coordinates               Weight
  0.000000  0.000000  0.000000      1.000000
  0.000000  0.022676  0.043607      8.000000
  0.000000  0.045351  0.087214      8.000000
  0.000000  0.068027  0.130822      8.000000
  0.000000  0.090703  0.174429      8.000000
  0.022676  0.022676  0.087214      8.000000
  0.022676  0.045351  0.130822     16.000000
  0.022676  0.068027  0.174429     16.000000
  0.022676  0.090703  0.218036     16.000000
  0.022676 -0.090703 -0.130822     16.000000
  0.022676 -0.068027 -0.087214     16.000000
  0.022676 -0.045351 -0.043607     16.000000
  0.022676 -0.022676 -0.000000      4.000000
  0.045351  0.045351  0.174429      8.000000
  0.045351  0.068027  0.218036     16.000000
  0.045351  0.090703  0.261643     16.000000
  0.045351 -0.090703 -0.087214     16.000000
  0.045351 -0.068027 -0.043607     16.000000
  0.045351 -0.045351  0.000000      4.000000
  0.068027  0.068027  0.261643      8.000000
  0.068027  0.090703  0.305250     16.000000
  0.068027 -0.090703 -0.043607     16.000000
  0.068027 -0.068027  0.000000      4.000000
  0.090703  0.090703  0.348857      8.000000
  0.090703 -0.090703  0.000000      4.000000
  0.045351  0.045351  0.087214      8.000000
  0.045351  0.068027  0.130822     16.000000
  0.045351  0.090703  0.174429     16.000000
  0.045351  0.000000  0.000000      4.000000
  0.068027  0.068027  0.174429      8.000000
  0.068027  0.090703  0.218036     16.000000
  0.068027  0.113379  0.261643     16.000000
  0.068027 -0.068027 -0.087214      8.000000
  0.068027 -0.022676  0.000000      8.000000
  0.068027  0.000000  0.043607      8.000000
  0.090703  0.090703  0.261643      8.000000
  0.090703  0.113379  0.305250      8.000000
  0.090703 -0.045351  0.000000      8.000000
  0.090703 -0.022676  0.043607     16.000000
  0.090703  0.000000  0.087214      8.000000
  0.113379 -0.068027  0.000000      8.000000
  0.113379 -0.045351  0.043607     16.000000
  0.113379 -0.022676  0.087214     16.000000
  0.113379  0.000000  0.130822      8.000000
 -0.068027 -0.068027 -0.348857      8.000000
 -0.068027 -0.045351 -0.305250     16.000000
 -0.068027 -0.022676 -0.261643     16.000000
 -0.068027  0.000000 -0.218036      8.000000
 -0.045351 -0.045351 -0.261643      8.000000
 -0.045351 -0.022676 -0.218036     16.000000
 -0.045351 -0.000000 -0.174429      8.000000
 -0.022676 -0.022676 -0.174429      8.000000
 -0.022676  0.000000 -0.130822      8.000000
  0.000000  0.000000 -0.087214      2.000000
  0.090703  0.090703  0.174429      8.000000
  0.090703  0.000000  0.000000      4.000000
  0.113379 -0.022676  0.000000      8.000000
  0.113379  0.000000  0.043607      8.000000
  0.136054 -0.045351  0.000000      8.000000
  0.136054 -0.022676  0.043607     16.000000
  0.136054  0.000000  0.087214      8.000000
 -0.045351 -0.045351 -0.348857      8.000000
 -0.045351 -0.022676 -0.305250     16.000000
 -0.045351  0.000000 -0.261643      8.000000
 -0.022676 -0.022676 -0.261643      8.000000
 -0.022676  0.000000 -0.218036      8.000000
  0.000000  0.000000 -0.174429      2.000000
[...]
   2.45000000  0.00000000  0.63700000
   0.00000000  0.00000000  0.00000000

 k-point  1 :   0.0000 0.0000 0.0000  plane waves:     183
 k-point  2 :   0.1111-0.0000 0.0000  plane waves:     193
 k-point  3 :   0.2222 0.0000-0.0000  plane waves:     194
 k-point  4 :   0.3333-0.0000 0.0000  plane waves:     198
 k-point  5 :   0.4444 0.0000-0.0000  plane waves:     200
 k-point  6 :   0.1111 0.1111 0.0000  plane waves:     194
 k-point  7 :   0.2222 0.1111-0.0000  plane waves:     200
 k-point  8 :   0.3333 0.1111 0.0000  plane waves:     201
 k-point  9 :   0.4444 0.1111 0.0000  plane waves:     199
 k-point 10 :  -0.4444 0.1111 0.0000  plane waves:     202
 k-point 11 :  -0.3333 0.1111-0.0000  plane waves:     199
 k-point 12 :  -0.2222 0.1111 0.0000  plane waves:     199
 k-point 13 :  -0.1111 0.1111 0.0000  plane waves:     190
 k-point 14 :   0.2222 0.2222-0.0000  plane waves:     201
 k-point 15 :   0.3333 0.2222 0.0000  plane waves:     199
 k-point 16 :   0.4444 0.2222 0.0000  plane waves:     200
 k-point 17 :  -0.4444 0.2222 0.0000  plane waves:     196
 k-point 18 :  -0.3333 0.2222-0.0000  plane waves:     194
 k-point 19 :  -0.2222 0.2222 0.0000  plane waves:     192
 k-point 20 :   0.3333 0.3333 0.0000  plane waves:     201
 k-point 21 :   0.4444 0.3333 0.0000  plane waves:     197
 k-point 22 :  -0.4444 0.3333 0.0000  plane waves:     194
 k-point 23 :  -0.3333 0.3333 0.0000  plane waves:     188
 k-point 24 :   0.4444 0.4444-0.0000  plane waves:     194
 k-point 25 :  -0.4444 0.4444 0.0000  plane waves:     190
 k-point 26 :   0.1111 0.1111 0.1111  plane waves:     195
 k-point 27 :   0.2222 0.1111 0.1111  plane waves:     199
 k-point 28 :   0.3333 0.1111 0.1111  plane waves:     204
 k-point 29 :  -0.1111 0.1111 0.1111  plane waves:     197
 k-point 30 :   0.2222 0.2222 0.1111  plane waves:     199
 k-point 31 :   0.3333 0.2222 0.1111  plane waves:     199
 k-point 32 :   0.4444 0.2222 0.1111  plane waves:     197
 k-point 33 :  -0.4444 0.2222 0.1111  plane waves:     197
 k-point 34 :  -0.2222 0.2222 0.1111  plane waves:     194
 k-point 35 :  -0.1111 0.2222 0.1111  plane waves:     191
 k-point 36 :   0.3333 0.3333 0.1111  plane waves:     192
 k-point 37 :   0.4444 0.3333 0.1111  plane waves:     196
 k-point 38 :  -0.3333 0.3333 0.1111  plane waves:     193
 k-point 39 :  -0.2222 0.3333 0.1111  plane waves:     195
 k-point 40 :  -0.1111 0.3333 0.1111  plane waves:     198
 k-point 41 :  -0.4444 0.4444 0.1111  plane waves:     190
 k-point 42 :  -0.3333 0.4444 0.1111  plane waves:     192
 k-point 43 :  -0.2222 0.4444 0.1111  plane waves:     194
 k-point 44 :  -0.1111 0.4444 0.1111  plane waves:     200
 k-point 45 :  -0.4444-0.4444 0.1111  plane waves:     194
 k-point 46 :  -0.3333-0.4444 0.1111  plane waves:     196
 k-point 47 :  -0.2222-0.4444 0.1111  plane waves:     196
 k-point 48 :  -0.1111-0.4444 0.1111  plane waves:     199
 k-point 49 :  -0.3333-0.3333 0.1111  plane waves:     196
 k-point 50 :  -0.2222-0.3333 0.1111  plane waves:     197
 k-point 51 :  -0.1111-0.3333 0.1111  plane waves:     201
 k-point 52 :  -0.2222-0.2222 0.1111  plane waves:     200
 k-point 53 :  -0.1111-0.2222 0.1111  plane waves:     208
 k-point 54 :  -0.1111-0.1111 0.1111  plane waves:     203
 k-point 55 :   0.2222 0.2222 0.2222  plane waves:     198
 k-point 56 :  -0.2222 0.2222 0.2222  plane waves:     198
 k-point 57 :  -0.3333 0.3333 0.2222  plane waves:     192
 k-point 58 :  -0.2222 0.3333 0.2222  plane waves:     195
 k-point 59 :  -0.4444 0.4444 0.2222  plane waves:     192
 k-point 60 :  -0.3333 0.4444 0.2222  plane waves:     192
 k-point 61 :  -0.2222 0.4444 0.2222  plane waves:     196
 k-point 62 :  -0.4444-0.4444 0.2222  plane waves:     194
 k-point 63 :  -0.3333-0.4444 0.2222  plane waves:     198
 k-point 64 :  -0.2222-0.4444 0.2222  plane waves:     197
 k-point 65 :  -0.3333-0.3333 0.2222  plane waves:     196
 k-point 66 :  -0.2222-0.3333 0.2222  plane waves:     193
 k-point 67 :  -0.2222-0.2222 0.2222  plane waves:     191
 k-point 68 :  -0.3333 0.3333 0.3333  plane waves:     192
 k-point 69 :  -0.4444 0.4444 0.3333  plane waves:     196
 k-point 70 :  -0.3333 0.4444 0.3333  plane waves:     197
 k-point 71 :  -0.4444-0.4444 0.3333  plane waves:     199
 k-point 72 :  -0.3333-0.4444 0.3333  plane waves:     199
 k-point 73 :  -0.3333-0.3333 0.3333  plane waves:     191
 k-point 74 :  -0.4444 0.4444 0.4444  plane waves:     198
 k-point 75 :  -0.4444-0.4444 0.4444  plane waves:     199

 maximum and minimum number of plane-waves per node :       208      183

 maximum number of plane-waves:       208
 maximum index in each direction:
   IXMAX=    4   IYMAX=    4   IZMAX=    4
   IXMIN=   -4   IYMIN=   -4   IZMIN=   -4

 serial   3D FFT for wavefunctions
 parallel 3D FFT for charge:
    minimum data exchange during FFTs selected (reduces bandwidth)

 Broyden mixing: mesh for mixing (old mesh)
   NGX =  9   NGY =  9   NGZ =  9
  (NGX  = 28   NGY  = 28   NGZ  = 28)
  gives a total of    729 points

 initial charge density was supplied:
 charge density of overlapping atoms calculated
 number of electron       8.0000000 magnetization
 keeping initial charge density in first step

 Maximum index for augmentation-charges          442 (set IRDMAX)

 First call to EWALD:  gamma=   0.567
 Maximum number of real-space cells 4x 4x 3
 Maximum number of reciprocal cells 3x 3x 3

--------------------------------------- Iteration      1(   1)  ---------------------------------------

 eigenvalue-minimisations  :  1240
 total energy-change (2. order) :-0.3365878E+01  (-0.2112845E+03)
 number of electron       8.0000000 magnetization
 augmentation part        8.0000000 magnetization

 Free energy of the ion-electron system (eV)
  alpha Z        PSCENC =         4.40202223
  Ewald energy   TEWEN  =      -265.18101312
  -Hartree energ DENC   =        -2.30415367
  -exchange      EXHF   =         0.00000000
  -V(xc)+E(xc)   XCENC  =       -17.81545108
  PAW double counting   =        65.95520812      -30.76852678
  entropy T*S    EENTRO =        -0.01244778
  eigenvalues    EBANDS =        36.24601114
  atomic energy  EATOM  =       206.11247263
  Solvation  Ediel_sol  =         0.00000000
  free energy    TOTEN  =        -3.36587831 eV

  energy without entropy =       -3.35343053  energy(sigma->0) =       -3.35965442

[...]

 Broyden mixing:
  rms(total) = 0.14972E+00    rms(broyden)= 0.14970E+00
  rms(prec ) = 0.33555E+00
  weight for this iteration     100.00

[...]

 eigenvalue-minimisations  :  1504
 total energy-change (2. order) : 0.6135432E-02  (-0.1750345E-03)
 number of electron       7.9999993 magnetization
 augmentation part       -0.4692798 magnetization

[...]

 eigenvalues of (default mixing * dielectric matrix)
  average eigenvalue GAMMA=   2.6660
  2.6660

[...]

 average (electrostatic) potential at core
  the test charge radii are     0.9892
  (the norm of the test charge is              1.0000)
       1 -80.5457       2 -80.5457

 E-fermi :   9.1185     XC(G=0): -10.8928     alpha+bet :-15.6819

 k-point     1 :       0.0000    0.0000    0.0000
  band No.  band energies     occupation
      1      -4.6139      2.00000
      2       6.2003      2.00000
      3       6.3038      2.00000
      4       6.3038      2.00000
      5      10.6014      0.00000
      6      16.9518      0.00000
      7      17.3775      0.00000
      8      17.3775      0.00000

[...]

 soft charge-density along one line, spin component           1
         0         1         2         3         4         5         6         7         8         9
 total charge-density along one line

------------------------ aborting loop because EDIFF is reached ----------------------------------------

  FORCE on cell =-STRESS in cart. coord.  units (eV):
  Direction    XX          YY          ZZ          XY          YZ          ZX
  Alpha Z     4.40202     4.40202     4.40202
  Ewald     -90.96023   -90.96023   -83.26083    -0.00000     0.00000     0.00000
  Hartree     0.55652     0.55652     1.39417     0.00000     0.00000     0.00000
  E(xc)     -25.44329   -25.44329   -25.39577     0.00003     0.00001     0.00001
  Local     -11.36659   -11.36659   -17.57013    -0.00005    -0.00005    -0.00005
  n-local    77.38811    77.08421    76.85094     0.95138    -0.39600    -0.38365
  augment   -12.05460   -12.05460   -11.93310     0.00005     0.00005     0.00005
  Kinetic    60.27951    54.49613    56.24018     3.57200    -1.96774    -3.78772
  Fock        0.00000     0.00000     0.00000     0.00000     0.00000     0.00000
  Total      -0.24218    -0.24218     0.72749    -0.00000     0.00000     0.00000
  in kB     -12.68515   -12.68515    38.10449    -0.00000     0.00000     0.00000

 VOLUME and BASIS-vectors are now :
  energy-cutoff  :      200.00
  volume of cell :       30.59
      direct lattice vectors                 reciprocal lattice vectors
    -2.450000000  2.450000000  1.274000000     0.000000000  0.204081633  0.392464678
     2.450000000 -2.450000000  1.274000000     0.204081633  0.000000000  0.392464678
     2.450000000  2.450000000 -1.274000000     0.204081633  0.204081633 -0.000000000

[...]

 FORCES acting on ions
    electron-ion (+dipol)            ewald-force                    non-local-force                 convergence-correction
   0.130E-05 -.130E-05 0.662E-14   0.198E-14 0.156E-15 0.342E-17   -.210E-16 0.692E-16 -.171E-17   -.455E-07 0.455E-07 -.140E-15
   -.130E-05 0.130E-05 0.697E-15   -.185E-14 0.943E-16 0.891E-15   0.134E-16 -.387E-16 0.198E-18   0.455E-07 -.455E-07 -.127E-15
   -.153E-13 0.146E-13 0.732E-14   0.139E-15 0.250E-15 0.894E-15   -.763E-17 0.305E-16 -.151E-17   -.642E-16 -.109E-15 -.268E-15

 POSITION                                       TOTAL-FORCE (eV/Angst)
      2.45000      0.00000      0.63700         0.000000     -0.000000     -0.000000
      0.00000      0.00000      0.00000        -0.000000      0.000000      0.000000
    total drift:                               -0.000000      0.000000      0.000000

  FREE ENERGIE OF THE ION-ELECTRON SYSTEM (eV)
  free  energy   TOTEN  =       -10.19171768 eV

  energy  without entropy=      -10.18027227  energy(sigma->0) =      -10.18599497

[...]

 d Force = 0.0000000E+00[ 0.000E+00, 0.000E+00]  d Energy = 0.1318872E-01-0.132E-01
 d Force = 0.0000000E+00[ 0.000E+00, 0.000E+00]  d Ewald  =-0.4131555E+00 0.413E+00

 Steepest descent step on ions:
 trial-energy change:   -0.013189  1 .order   -0.013845   -0.015596   -0.012095
  (g-gl).g = 0.156E-01      g.g   = 0.156E-01  gl.gl    = 0.000E+00
 g(Force)  = 0.168E-45   g(Stress)= 0.156E-01 ortho     = 0.000E+00
 gamma     =   0.00000
 trial     =   1.00000
 opt step  =   4.00000  (harmonic =   4.45487) maximal distance =0.00000000
 next E    =   -10.226456   (d E  =  -0.03474)

[...]

 d Force = 0.0000000E+00[ 0.000E+00, 0.000E+00]  d Energy = 0.2689218E-02-0.269E-02
 d Force = 0.0000000E+00[ 0.000E+00, 0.000E+00]  d Ewald  = 0.5616704E+00-0.562E+00

[...]

 d Force = 0.0000000E+00[ 0.000E+00, 0.000E+00]  d Energy =-0.3496071E-04 0.350E-04
 d Force = 0.0000000E+00[ 0.000E+00, 0.000E+00]  d Ewald  = 0.1988802E+01-0.199E+01

 Conjugate gradient step on ions:
 trial-energy change:    0.000035  1 .order    0.000175   -0.007103    0.007452
  (g-gl).g = 0.399E-02      g.g   = 0.495E-02  gl.gl    = 0.156E-01
 g(Force)  = 0.238E-47   g(Stress)= 0.495E-02 ortho     = 0.957E-03
 gamma     =   0.25616
 trial     =   1.36662
 opt step  =   0.66692  (harmonic =   0.66692) maximal distance =0.00000000
 next E    =   -10.218677   (d E  =  -0.00173)

[...]

 eigenvalue-minimisations  :  1688
 total energy-change (2. order) :-0.2717302E-02  (-0.5814995E-02)
 number of electron       7.9999986 magnetization
 augmentation part       -0.4711542 magnetization

[...]

 Broyden mixing:
  rms(total) = 0.85613E-02    rms(broyden)= 0.85606E-02
  rms(prec ) = 0.25649E-01
  weight for this iteration     100.00

 eigenvalues of (default mixing * dielectric matrix)
  average eigenvalue GAMMA=   2.3965
  2.3965

[...]

--------------------------------------- Iteration      6(   3)  ---------------------------------------

 eigenvalue-minimisations  :   736
 total energy-change (2. order) : 0.3345500E-03  (-0.5661029E-04)
 number of electron       7.9999986 magnetization
 augmentation part       -0.4711121 magnetization

 Free energy of the ion-electron system (eV)
  alpha Z        PSCENC =         4.38448929
  Ewald energy   TEWEN  =      -264.91094157
  -Hartree energ DENC   =        -2.49676176
  -exchange      EXHF   =         0.00000000
  -V(xc)+E(xc)   XCENC  =       -17.57929173
  PAW double counting   =        71.52560732      -36.45296941
  entropy T*S    EENTRO =        -0.01301689
  eigenvalues    EBANDS =        29.21168092
  atomic energy  EATOM  =       206.11247263
  Solvation  Ediel_sol  =         0.00000000
  free energy    TOTEN  =       -10.21873120 eV

  energy without entropy =      -10.20571431  energy(sigma->0) =      -10.21222275

 average (electrostatic) potential at core
  the test charge radii are     0.9892
  (the norm of the test charge is              1.0000)
       1 -80.5896       2 -80.5896

 E-fermi :   9.0946     XC(G=0): -10.8776     alpha+bet :-15.6195

[...]

 k-point    75 :      -0.4444   -0.4444    0.4444
  band No.  band energies     occupation
      1       1.0883      2.00000
      2       1.1227      2.00000
      3       2.5979      2.00000
      4       2.5979      2.00000
      5      10.8759      0.00000
      6      18.2915      0.00000
      7      21.1382      0.00000
      8      21.1386      0.00000

 soft charge-density along one line, spin component           1
         0         1         2         3         4         5         6         7         8         9
 total charge-density along one line

------------------------ aborting loop because EDIFF is reached ----------------------------------------

  FORCE on cell =-STRESS in cart. coord.  units (eV):
  Direction    XX          YY          ZZ          XY          YZ          ZX
  Alpha Z     4.38449     4.38449     4.38449
  Ewald     -86.98024   -86.98024   -90.95069    -0.00000     0.00000     0.00000
  Hartree     0.85218     0.85218     0.79403     0.00000    -0.00000    -0.00000
  E(xc)     -25.46161   -25.46161   -25.30366     0.00002     0.00001     0.00001
  Local     -15.61103   -15.61103    -9.20285    -0.00005    -0.00005    -0.00005
  n-local    78.09237    77.88117    75.08605     1.17315    -0.48062    -0.44195
  augment   -12.06763   -12.06763   -11.79627     0.00005     0.00005     0.00005
  Kinetic    59.82642    53.94522    56.99638     3.29228    -1.49204    -2.54277
  Fock        0.00000     0.00000     0.00000     0.00000     0.00000     0.00000
  Total      -0.01123    -0.01123     0.00748     0.00000     0.00000     0.00000
  in kB      -0.58611    -0.58611     0.39000     0.00000     0.00000     0.00000

 VOLUME and BASIS-vectors are now :
  energy-cutoff  :      200.00
  volume of cell :       30.71
      direct lattice vectors                 reciprocal lattice vectors
    -2.395301264  2.395301264  1.338179977     0.000000000  0.208742010  0.373641818
     2.395301264 -2.395301264  1.338179977     0.208742010  0.000000000  0.373641818
     2.395301264  2.395301264 -1.338179977     0.208742010  0.208742010  0.000000000

  length of vectors
     3.642205642  3.642205642  3.642205642     0.427997004  0.427997004  0.295205781

 FORCES acting on ions
    electron-ion (+dipol)            ewald-force                    non-local-force                 convergence-correction
   0.102E-05 -.102E-05 0.239E-13   -.766E-14 0.236E-14 -.512E-14   -.213E-16 0.342E-16 0.121E-17   0.171E-07 -.171E-07 -.343E-15
   -.102E-05 0.102E-05 -.146E-13   0.769E-14 -.222E-14 0.547E-14   0.160E-16 -.118E-16 -.259E-16   -.171E-07 0.171E-07 0.415E-16
   -.213E-13 0.797E-14 0.929E-14   0.305E-16 0.142E-15 0.356E-15   -.531E-17 0.224E-16 -.247E-16   -.265E-15 -.729E-16 -.301E-15

 POSITION                                       TOTAL-FORCE (eV/Angst)
      2.39530     -0.00000      0.66909         0.000000     -0.000000      0.000000
     -0.00000      0.00000      0.00000        -0.000000      0.000000     -0.000000
    total drift:                               -0.000000      0.000000      0.000000

  FREE ENERGIE OF THE ION-ELECTRON SYSTEM (eV)
  free  energy   TOTEN  =       -10.21873120 eV

  energy  without entropy=      -10.20571431  energy(sigma->0) =      -10.21222275

 d Force = 0.0000000E+00[ 0.000E+00, 0.000E+00]  d Energy = 0.1821935E-02-0.182E-02
 d Force = 0.0000000E+00[ 0.000E+00, 0.000E+00]  d Ewald  =-0.1021067E+01 0.102E+01

 reached required accuracy - stopping structural energy minimisation
 writing wavefunctions