 vasp.5.4.4.18Apr17-6-g9f103f2a35 (build Dec 09 2018 21:25:21) complex

 executed on IFC18.0.1.163_CrayMP date 2019.03.20  09:09:21

 INCAR:
 POTCAR:   PAW_PBE Si 05Jan2001

 POTCAR:   PAW_PBE Si 05Jan2001
   VRHFIN =Si: s2p2

   TITEL  = PAW_PBE Si 05Jan2001
   POMASS =   28.085; ZVAL   =    4.000    mass and valenz
   ENMAX  =  245.345; ENMIN  =  184.009 eV
   QCUT   =   -4.246; QGAM   =    8.493    optimization parameters

   Description
     l     E      TYP  RCUT    TYP  RCUT
     0   .000     23  1.900
     0   .000     23  1.900
     1   .000     23  1.900
     1   .000     23  1.900
     2   .000      7  1.900

 PAW_PBE Si 05Jan2001                   :

 POSCAR: Si2
  positions in direct lattice
 exchange correlation table for  LEXCH =        8
   RHO(1)=    0.500       N(1)  =     2000
   RHO(2)=  100.500       N(2)  =     4000

 ion  position               nearest neighbor table
   1  0.250  0.750  0.500-   2 2.53   2 2.53   2 2.53   2 2.53   2 3.11   2 3.11   2 3.11   2 3.11

   2  0.000  0.000  0.000-   1 2.53   1 2.53   1 2.53   1 2.53   1 3.11   1 3.11   1 3.11   1 3.11

  LATTYP: Found a body centered tetragonal cell.
 ALAT       =     4.9000000000
 C/A-ratio  =     0.5200000000

  Lattice vectors:

 A1 = (  -2.4500000000,   2.4500000000,   1.2740000000)
 A2 = (   2.4500000000,  -2.4500000000,   1.2740000000)
 A3 = (   2.4500000000,   2.4500000000,  -1.2740000000)

Analysis of symmetry for initial positions (statically):
 Subroutine PRICEL returns:
 Original cell was already a primitive cell.

 Routine SETGRP: Setting up the symmetry group for a
 body centered tetragonal supercell.

 Subroutine GETGRP returns: Found 16 space group operations
 (whereof  8 operations were pure point group operations)
 out of a pool of 16 trial point group operations.

The static configuration has the point symmetry D_2d.
 The point group associated with its full space group is D_4h.

Analysis of symmetry for dynamics (positions and initial velocities):
 Subroutine PRICEL returns:
 Original cell was already a primitive cell.

 Routine SETGRP: Setting up the symmetry group for a
 body centered tetragonal supercell.

 Subroutine GETGRP returns: Found 16 space group operations
 (whereof  8 operations were pure point group operations)
 out of a pool of 16 trial point group operations.

The dynamic configuration has the point symmetry D_2d.
 The point group associated with its full space group is D_4h.

 Subroutine INISYM returns: Found 16 space group operations
 (whereof  8 operations are pure point group operations),
 and found     1 'primitive' translations

 KPOINTS: Automatic kpoint scheme

Automatic generation of k-mesh.
Space group operators:
 irot       det(A)        alpha          n_x          n_y          n_z        tau_x        tau_y        tau_z
    1     1.000000     0.000000     1.000000     0.000000     0.000000     0.000000     0.000000     0.000000
    2    -1.000000    90.000000    -0.000000    -0.000000    -1.000000     0.000000     0.000000     0.000000
    3     1.000000   180.000000    -0.000000    -0.000000    -1.000000     0.000000     0.000000     0.000000
    4    -1.000000    90.000000    -0.000000     0.000000     1.000000     0.000000     0.000000     0.000000
    5    -1.000000   180.000000     0.000000    -1.000000     0.000000     0.000000     0.000000     0.000000
    6     1.000000   180.000000     0.707107     0.707107    -0.000000     0.000000     0.000000     0.000000
    7    -1.000000   180.000000     1.000000     0.000000     0.000000     0.000000     0.000000     0.000000
    8     1.000000   180.000000     0.707107    -0.707107     0.000000     0.000000     0.000000     0.000000
    9    -1.000000     0.000000     1.000000     0.000000     0.000000     0.250000     0.750000     0.500000
   10     1.000000    90.000000    -0.000000    -0.000000    -1.000000     0.250000     0.750000     0.500000
   11    -1.000000   180.000000    -0.000000    -0.000000    -1.000000     0.250000     0.750000     0.500000
   12     1.000000    90.000000    -0.000000     0.000000     1.000000     0.250000     0.750000     0.500000
   13     1.000000   180.000000     0.000000    -1.000000     0.000000     0.250000     0.750000     0.500000
   14    -1.000000   180.000000     0.707107     0.707107    -0.000000     0.250000     0.750000     0.500000
   15     1.000000   180.000000     1.000000     0.000000     0.000000     0.250000     0.750000     0.500000
   16    -1.000000   180.000000     0.707107    -0.707107     0.000000     0.250000     0.750000     0.500000

 Subroutine IBZKPT returns following result:

 Found     75 irreducible k-points:

 Following reciprocal coordinates:
            Coordinates               Weight
  0.000000  0.000000  0.000000      1.000000
  0.111111 -0.000000  0.000000      8.000000
  0.222222  0.000000 -0.000000      8.000000
  0.333333 -0.000000  0.000000      8.000000
  0.444444  0.000000 -0.000000      8.000000
  0.111111  0.111111  0.000000      8.000000
  0.222222  0.111111 -0.000000     16.000000
  0.333333  0.111111  0.000000     16.000000
  0.444444  0.111111  0.000000     16.000000
 -0.444444  0.111111  0.000000     16.000000
 -0.333333  0.111111 -0.000000     16.000000
 -0.222222  0.111111  0.000000     16.000000
 -0.111111  0.111111  0.000000      4.000000
  0.222222  0.222222 -0.000000      8.000000
  0.333333  0.222222  0.000000     16.000000
  0.444444  0.222222  0.000000     16.000000
 -0.444444  0.222222  0.000000     16.000000
 -0.333333  0.222222 -0.000000     16.000000
 -0.222222  0.222222  0.000000      4.000000
  0.333333  0.333333  0.000000      8.000000
  0.444444  0.333333  0.000000     16.000000
 -0.444444  0.333333  0.000000     16.000000
 -0.333333  0.333333  0.000000      4.000000
  0.444444  0.444444 -0.000000      8.000000
 -0.444444  0.444444  0.000000      4.000000
  0.111111  0.111111  0.111111      8.000000
  0.222222  0.111111  0.111111     16.000000
  0.333333  0.111111  0.111111     16.000000
 -0.111111  0.111111  0.111111      4.000000
  0.222222  0.222222  0.111111      8.000000
  0.333333  0.222222  0.111111     16.000000
  0.444444  0.222222  0.111111     16.000000
 -0.444444  0.222222  0.111111      8.000000
 -0.222222  0.222222  0.111111      8.000000
 -0.111111  0.222222  0.111111      8.000000
  0.333333  0.333333  0.111111      8.000000
  0.444444  0.333333  0.111111      8.000000
 -0.333333  0.333333  0.111111      8.000000
 -0.222222  0.333333  0.111111     16.000000
 -0.111111  0.333333  0.111111      8.000000
 -0.444444  0.444444  0.111111      8.000000
 -0.333333  0.444444  0.111111     16.000000
 -0.222222  0.444444  0.111111     16.000000
 -0.111111  0.444444  0.111111      8.000000
 -0.444444 -0.444444  0.111111      8.000000
 -0.333333 -0.444444  0.111111     16.000000
 -0.222222 -0.444444  0.111111     16.000000
 -0.111111 -0.444444  0.111111      8.000000
 -0.333333 -0.333333  0.111111      8.000000
 -0.222222 -0.333333  0.111111     16.000000
 -0.111111 -0.333333  0.111111      8.000000
 -0.222222 -0.222222  0.111111      8.000000
 -0.111111 -0.222222  0.111111      8.000000
 -0.111111 -0.111111  0.111111      2.000000
  0.222222  0.222222  0.222222      8.000000
 -0.222222  0.222222  0.222222      4.000000
 -0.333333  0.333333  0.222222      8.000000
 -0.222222  0.333333  0.222222      8.000000
 -0.444444  0.444444  0.222222      8.000000
 -0.333333  0.444444  0.222222     16.000000
 -0.222222  0.444444  0.222222      8.000000
 -0.444444 -0.444444  0.222222      8.000000
 -0.333333 -0.444444  0.222222     16.000000
 -0.222222 -0.444444  0.222222      8.000000
 -0.333333 -0.333333  0.222222      8.000000
 -0.222222 -0.333333  0.222222      8.000000
 -0.222222 -0.222222  0.222222      2.000000
 -0.333333  0.333333  0.333333      4.000000
 -0.444444  0.444444  0.333333      8.000000
 -0.333333  0.444444  0.333333      8.000000
 -0.444444 -0.444444  0.333333      8.000000
 -0.333333 -0.444444  0.333333      8.000000
 -0.333333 -0.333333  0.333333      2.000000
 -0.444444  0.444444  0.444444      4.000000
 -0.444444 -0.444444  0.444444      2.000000

 Following cartesian coordinates:
            Coordinates               Weight
  0.000000  0.000000  0.000000      1.000000
  0.000000  0.022676  0.043607      8.000000
  0.000000  0.045351  0.087214      8.000000
  0.000000  0.068027  0.130822      8.000000
  0.000000  0.090703  0.174429      8.000000
  0.022676  0.022676  0.087214      8.000000
  0.022676  0.045351  0.130822     16.000000
  0.022676  0.068027  0.174429     16.000000
  0.022676  0.090703  0.218036     16.000000
  0.022676 -0.090703 -0.130822     16.000000
  0.022676 -0.068027 -0.087214     16.000000
  0.022676 -0.045351 -0.043607     16.000000
  0.022676 -0.022676 -0.000000      4.000000
  0.045351  0.045351  0.174429      8.000000
  0.045351  0.068027  0.218036     16.000000
  0.045351  0.090703  0.261643     16.000000
  0.045351 -0.090703 -0.087214     16.000000
  0.045351 -0.068027 -0.043607     16.000000
  0.045351 -0.045351  0.000000      4.000000
  0.068027  0.068027  0.261643      8.000000
  0.068027  0.090703  0.305250     16.000000
  0.068027 -0.090703 -0.043607     16.000000
  0.068027 -0.068027  0.000000      4.000000
  0.090703  0.090703  0.348857      8.000000
  0.090703 -0.090703  0.000000      4.000000
  0.045351  0.045351  0.087214      8.000000
  0.045351  0.068027  0.130822     16.000000
  0.045351  0.090703  0.174429     16.000000
  0.045351  0.000000  0.000000      4.000000
  0.068027  0.068027  0.174429      8.000000
  0.068027  0.090703  0.218036     16.000000
  0.068027  0.113379  0.261643     16.000000
  0.068027 -0.068027 -0.087214      8.000000
  0.068027 -0.022676  0.000000      8.000000
  0.068027  0.000000  0.043607      8.000000
  0.090703  0.090703  0.261643      8.000000
  0.090703  0.113379  0.305250      8.000000
  0.090703 -0.045351  0.000000      8.000000
  0.090703 -0.022676  0.043607     16.000000
  0.090703  0.000000  0.087214      8.000000
  0.113379 -0.068027  0.000000      8.000000
  0.113379 -0.045351  0.043607     16.000000
  0.113379 -0.022676  0.087214     16.000000
  0.113379  0.000000  0.130822      8.000000
 -0.068027 -0.068027 -0.348857      8.000000
 -0.068027 -0.045351 -0.305250     16.000000
 -0.068027 -0.022676 -0.261643     16.000000
 -0.068027  0.000000 -0.218036      8.000000
 -0.045351 -0.045351 -0.261643      8.000000
 -0.045351 -0.022676 -0.218036     16.000000
 -0.045351 -0.000000 -0.174429      8.000000
 -0.022676 -0.022676 -0.174429      8.000000
 -0.022676  0.000000 -0.130822      8.000000
  0.000000  0.000000 -0.087214      2.000000
  0.090703  0.090703  0.174429      8.000000
  0.090703  0.000000  0.000000      4.000000
  0.113379 -0.022676  0.000000      8.000000
  0.113379  0.000000  0.043607      8.000000
  0.136054 -0.045351  0.000000      8.000000
  0.136054 -0.022676  0.043607     16.000000
  0.136054  0.000000  0.087214      8.000000
 -0.045351 -0.045351 -0.348857      8.000000
 -0.045351 -0.022676 -0.305250     16.000000
 -0.045351  0.000000 -0.261643      8.000000
 -0.022676 -0.022676 -0.261643      8.000000
 -0.022676  0.000000 -0.218036      8.000000
  0.000000  0.000000 -0.174429      2.000000
[...]
 k-point  5 :   0.4444 0.0000-0.0000  plane waves:     125
 k-point  6 :   0.1111 0.1111 0.0000  plane waves:     131
 k-point  7 :   0.2222 0.1111-0.0000  plane waves:     125
 k-point  8 :   0.3333 0.1111 0.0000  plane waves:     125
 k-point  9 :   0.4444 0.1111 0.0000  plane waves:     124
 k-point 10 :  -0.4444 0.1111 0.0000  plane waves:     131
 k-point 11 :  -0.3333 0.1111-0.0000  plane waves:     129
 k-point 12 :  -0.2222 0.1111 0.0000  plane waves:     130
 k-point 13 :  -0.1111 0.1111 0.0000  plane waves:     131
 k-point 14 :   0.2222 0.2222-0.0000  plane waves:     124
 k-point 15 :   0.3333 0.2222 0.0000  plane waves:     125
 k-point 16 :   0.4444 0.2222 0.0000  plane waves:     127
 k-point 17 :  -0.4444 0.2222 0.0000  plane waves:     129
 k-point 18 :  -0.3333 0.2222-0.0000  plane waves:     128
 k-point 19 :  -0.2222 0.2222 0.0000  plane waves:     131
 k-point 20 :   0.3333 0.3333 0.0000  plane waves:     125
 k-point 21 :   0.4444 0.3333 0.0000  plane waves:     127
 k-point 22 :  -0.4444 0.3333 0.0000  plane waves:     130
 k-point 23 :  -0.3333 0.3333 0.0000  plane waves:     131
 k-point 24 :   0.4444 0.4444-0.0000  plane waves:     128
 k-point 25 :  -0.4444 0.4444 0.0000  plane waves:     135
 k-point 26 :   0.1111 0.1111 0.1111  plane waves:     129
 k-point 27 :   0.2222 0.1111 0.1111  plane waves:     131
 k-point 28 :   0.3333 0.1111 0.1111  plane waves:     125
 k-point 29 :  -0.1111 0.1111 0.1111  plane waves:     133
 k-point 30 :   0.2222 0.2222 0.1111  plane waves:     125
 k-point 31 :   0.3333 0.2222 0.1111  plane waves:     126
 k-point 32 :   0.4444 0.2222 0.1111  plane waves:     132
 k-point 33 :  -0.4444 0.2222 0.1111  plane waves:     130
 k-point 34 :  -0.2222 0.2222 0.1111  plane waves:     133
 k-point 35 :  -0.1111 0.2222 0.1111  plane waves:     129
 k-point 36 :   0.3333 0.3333 0.1111  plane waves:     128
 k-point 37 :   0.4444 0.3333 0.1111  plane waves:     128
 k-point 38 :  -0.3333 0.3333 0.1111  plane waves:     129
 k-point 39 :  -0.2222 0.3333 0.1111  plane waves:     132
 k-point 40 :  -0.1111 0.3333 0.1111  plane waves:     131
 k-point 41 :  -0.4444 0.4444 0.1111  plane waves:     130
 k-point 42 :  -0.3333 0.4444 0.1111  plane waves:     128
 k-point 43 :  -0.2222 0.4444 0.1111  plane waves:     130
 k-point 44 :  -0.1111 0.4444 0.1111  plane waves:     130
 k-point 45 :  -0.4444-0.4444 0.1111  plane waves:     130
 k-point 46 :  -0.3333-0.4444 0.1111  plane waves:     127
 k-point 47 :  -0.2222-0.4444 0.1111  plane waves:     122
 k-point 48 :  -0.1111-0.4444 0.1111  plane waves:     130
 k-point 49 :  -0.3333-0.3333 0.1111  plane waves:     123
 k-point 50 :  -0.2222-0.3333 0.1111  plane waves:     124
 k-point 51 :  -0.1111-0.3333 0.1111  plane waves:     120
 k-point 52 :  -0.2222-0.2222 0.1111  plane waves:     118
 k-point 53 :  -0.1111-0.2222 0.1111  plane waves:     126
 k-point 54 :  -0.1111-0.1111 0.1111  plane waves:     131
 k-point 55 :   0.2222 0.2222 0.2222  plane waves:     126
 k-point 56 :  -0.2222 0.2222 0.2222  plane waves:     125
 k-point 57 :  -0.3333 0.3333 0.2222  plane waves:     129
 k-point 58 :  -0.2222 0.3333 0.2222  plane waves:     130
 k-point 59 :  -0.4444 0.4444 0.2222  plane waves:     129
 k-point 60 :  -0.3333 0.4444 0.2222  plane waves:     129
 k-point 61 :  -0.2222 0.4444 0.2222  plane waves:     128
 k-point 62 :  -0.4444-0.4444 0.2222  plane waves:     131
 k-point 63 :  -0.3333-0.4444 0.2222  plane waves:     127
 k-point 64 :  -0.2222-0.4444 0.2222  plane waves:     122
 k-point 65 :  -0.3333-0.3333 0.2222  plane waves:     123
 k-point 66 :  -0.2222-0.3333 0.2222  plane waves:     121
 k-point 67 :  -0.2222-0.2222 0.2222  plane waves:     115
 k-point 68 :  -0.3333 0.3333 0.3333  plane waves:     133
 k-point 69 :  -0.4444 0.4444 0.3333  plane waves:     131
 k-point 70 :  -0.3333 0.4444 0.3333  plane waves:     131
 k-point 71 :  -0.4444-0.4444 0.3333  plane waves:     128
 k-point 72 :  -0.3333-0.4444 0.3333  plane waves:     124
 k-point 73 :  -0.3333-0.3333 0.3333  plane waves:     122
 k-point 74 :  -0.4444 0.4444 0.4444  plane waves:     129
 k-point 75 :  -0.4444-0.4444 0.4444  plane waves:     126

 maximum and minimum number of plane-waves per node :       135      115

 maximum number of plane-waves:       135
 maximum index in each direction:
   IXMAX=    4   IYMAX=    4   IZMAX=    3
   IXMIN=   -4   IYMIN=   -4   IZMIN=   -4

 serial   3D FFT for wavefunctions
 parallel 3D FFT for charge:
    minimum data exchange during FFTs selected (reduces bandwidth)

 Broyden mixing: mesh for mixing (old mesh)
   NGX =  7   NGY =  7   NGZ =  7
  (NGX  = 24   NGY  = 24   NGZ  = 24)
  gives a total of    343 points

 initial charge density was supplied:
 charge density of overlapping atoms calculated
 number of electron       8.0000000 magnetization
 keeping initial charge density in first step

 Maximum index for augmentation-charges          241 (set IRDMAX)

 First call to EWALD:  gamma=   0.567
 Maximum number of real-space cells 4x 4x 3
 Maximum number of reciprocal cells 3x 3x 3

--------------------------------------- Iteration      1(   1)  ---------------------------------------

 eigenvalue-minimisations  :  1296
 total energy-change (2. order) :-0.5333478E+01  (-0.1762429E+03)
 number of electron       8.0000000 magnetization
 augmentation part        8.0000000 magnetization

 Free energy of the ion-electron system (eV)
  alpha Z        PSCENC =         4.40202223
  Ewald energy   TEWEN  =      -265.18101312
  -Hartree energ DENC   =        -2.30415367
  -exchange      EXHF   =         0.00000000
  -V(xc)+E(xc)   XCENC  =       -17.81530915
  PAW double counting   =        65.95520812      -30.76852678
  entropy T*S    EENTRO =        -0.02078655
  eigenvalues    EBANDS =        34.30724490
  atomic energy  EATOM  =       206.09183643
  Solvation  Ediel_sol  =         0.00000000
  free energy    TOTEN  =        -5.33347759 eV

  energy without entropy =       -5.31269104  energy(sigma->0) =       -5.32308432

[...]

 Broyden mixing:
  rms(total) = 0.14966E+00    rms(broyden)= 0.14956E+00
  rms(prec ) = 0.33650E+00
  weight for this iteration     100.00

[...]

 eigenvalue-minimisations  :  1424
 total energy-change (2. order) : 0.8422537E-02  (-0.1738248E-03)
 number of electron       8.0000045 magnetization
 augmentation part       -0.4672211 magnetization

[...]

 eigenvalues of (default mixing * dielectric matrix)
  average eigenvalue GAMMA=   2.6614
  2.6614

[...]

 average (electrostatic) potential at core
  the test charge radii are     0.9892
  (the norm of the test charge is              1.0000)
       1 -80.5549       2 -80.5549

 E-fermi :   9.1431     XC(G=0): -10.8934     alpha+bet :-15.6819

 k-point     1 :       0.0000    0.0000    0.0000
  band No.  band energies     occupation
      1      -4.6150      2.00000
      2       6.2021      2.00000
      3       6.3082      2.00000
      4       6.3082      2.00000
      5      10.6569      0.00000
      6      17.0756      0.00000
      7      17.3795      0.00000
      8      17.3796      0.00000

[...]

 soft charge-density along one line, spin component           1
         0         1         2         3         4         5         6         7         8         9
 total charge-density along one line

------------------------ aborting loop because EDIFF is reached ----------------------------------------

  FORCE on cell =-STRESS in cart. coord.  units (eV):
  Direction    XX          YY          ZZ          XY          YZ          ZX
  Alpha Z     4.40202     4.40202     4.40202
  Ewald     -90.96023   -90.96023   -83.26083    -0.00000     0.00000     0.00000
  Hartree     0.56005     0.56005     1.39495     0.00000    -0.00000    -0.00000
  E(xc)     -25.43231   -25.43231   -25.38612     0.00012     0.00006     0.00006
  Local     -11.36369   -11.36369   -17.56305    -0.00003    -0.00012    -0.00012
  n-local    77.57559    77.24360    77.05496     0.96587    -0.44252    -0.43365
  augment   -12.00835   -12.00835   -11.88471     0.00008     0.00008     0.00008
  Kinetic    60.11297    54.33592    56.05584     3.56131    -1.97333    -3.77646
  Fock        0.00000     0.00000     0.00000     0.00000     0.00000     0.00000
  Total      -0.16847    -0.16847     0.81305    -0.00000     0.00000     0.00000
  in kB      -8.82431    -8.82431    42.58614    -0.00000     0.00000     0.00000

 VOLUME and BASIS-vectors are now :
  energy-cutoff  :      150.00
  volume of cell :       30.59
      direct lattice vectors                 reciprocal lattice vectors
    -2.450000000  2.450000000  1.274000000     0.000000000  0.204081633  0.392464678
     2.450000000 -2.450000000  1.274000000     0.204081633  0.000000000  0.392464678
     2.450000000  2.450000000 -1.274000000     0.204081633  0.204081633 -0.000000000

[...]

 FORCES acting on ions
    electron-ion (+dipol)            ewald-force                    non-local-force                 convergence-correction
   -.284E-04 0.284E-04 -.379E-14   0.198E-14 0.156E-15 0.342E-17   0.294E-16 -.678E-16 0.705E-17   -.338E-06 0.338E-06 -.111E-16
   0.284E-04 -.284E-04 0.177E-14   -.185E-14 0.943E-16 0.891E-15   -.205E-16 0.559E-16 -.330E-17   0.338E-06 -.338E-06 -.480E-16
   -.816E-14 0.149E-14 -.202E-14   0.139E-15 0.250E-15 0.894E-15   0.893E-17 -.119E-16 0.375E-17   -.978E-16 -.171E-15 -.591E-16

 POSITION                                       TOTAL-FORCE (eV/Angst)
      2.45000      0.00000      0.63700         0.000000      0.000000      0.000000
      0.00000      0.00000      0.00000        -0.000000     -0.000000     -0.000000
    total drift:                               -0.000000      0.000000     -0.000000

  FREE ENERGIE OF THE ION-ELECTRON SYSTEM (eV)
  free  energy   TOTEN  =       -10.11827967 eV

  energy  without entropy=      -10.10715950  energy(sigma->0) =      -10.11271959

[...]

 d Force = 0.0000000E+00[ 0.000E+00, 0.000E+00]  d Energy = 0.1316894E-01-0.132E-01
 d Force = 0.0000000E+00[ 0.000E+00, 0.000E+00]  d Ewald  =-0.9063351E+00 0.906E+00

 Steepest descent step on ions:
 trial-energy change:   -0.013169  1 .order   -0.014057   -0.017315   -0.010799
  (g-gl).g = 0.173E-01      g.g   = 0.173E-01  gl.gl    = 0.000E+00
 g(Force)  = 0.967E-44   g(Stress)= 0.173E-01 ortho     = 0.000E+00
 gamma     =   0.00000
 trial     =   1.00000
 opt step  =   2.65748  (harmonic =   2.65748) maximal distance =0.00000000
 next E    =   -10.141287   (d E  =  -0.02301)

[...]

 d Force = 0.0000000E+00[ 0.000E+00, 0.000E+00]  d Energy = 0.4284270E-03-0.428E-03
 d Force = 0.0000000E+00[ 0.000E+00, 0.000E+00]  d Ewald  = 0.3422322E+00-0.342E+00

[...]

 eigenvalues of (default mixing * dielectric matrix)
  average eigenvalue GAMMA=   1.5276
  0.7826  2.2726

[...]

 Conjugate gradient step on ions:
 trial-energy change:   -0.005283  1 .order   -0.005154   -0.012169    0.001860
  (g-gl).g = 0.138E-01      g.g   = 0.138E-01  gl.gl    = 0.173E-01
 g(Force)  = 0.173E-43   g(Stress)= 0.138E-01 ortho     = 0.699E-04
 gamma     =   0.79490
 trial     =   0.87612
 opt step  =   0.75995  (harmonic =   0.75995) maximal distance =0.00000000
 next E    =   -10.144440   (d E  =  -0.00528)

[...]

 d Force = 0.0000000E+00[ 0.000E+00, 0.000E+00]  d Energy = 0.1436394E-03-0.144E-03
 d Force = 0.0000000E+00[ 0.000E+00, 0.000E+00]  d Ewald  =-0.2086152E+00 0.209E+00

[...]

 d Force = 0.0000000E+00[ 0.000E+00, 0.000E+00]  d Energy =-0.7238623E-04 0.724E-04
 d Force = 0.0000000E+00[ 0.000E+00, 0.000E+00]  d Ewald  =-0.9101195E-01 0.910E-01

[...]

 eigenvalue-minimisations  :   600
 total energy-change (2. order) : 0.2547716E-07  (-0.3197434E-07)
 number of electron       7.9999990 magnetization
 augmentation part       -0.4684215 magnetization

[...]

 Broyden mixing:
  rms(total) = 0.25382E-04    rms(broyden)= 0.23576E-04
  rms(prec ) = 0.72600E-04
  weight for this iteration     100.00

[...]

 Broyden mixing:
  rms(total) = 0.14897E-04    rms(broyden)= 0.11787E-04
  rms(prec ) = 0.36290E-04
  weight for this iteration     100.00
  WARNING: grid for Broyden might be to small

[...]

--------------------------------------- Iteration     15(   2)  ---------------------------------------

 eigenvalue-minimisations  :   600
 total energy-change (2. order) :-0.2889124E-08  (-0.1156745E-09)
 number of electron       7.9999990 magnetization
 augmentation part       -0.4684199 magnetization

 Free energy of the ion-electron system (eV)
  alpha Z        PSCENC =         4.36102839
  Ewald energy   TEWEN  =      -264.43320111
  -Hartree energ DENC   =        -2.53348303
  -exchange      EXHF   =         0.00000000
  -V(xc)+E(xc)   XCENC  =       -17.58504561
  PAW double counting   =        72.30014437      -37.22502250
  entropy T*S    EENTRO =        -0.01256782
  eigenvalues    EBANDS =        28.89176139
  atomic energy  EATOM  =       206.09183643
  Solvation  Ediel_sol  =         0.00000000
  free energy    TOTEN  =       -10.14454949 eV

  energy without entropy =      -10.13198167  energy(sigma->0) =      -10.13826558

 average (electrostatic) potential at core
  the test charge radii are     0.9892
  (the norm of the test charge is              1.0000)
       1 -80.6712       2 -80.6712

 E-fermi :   9.0548     XC(G=0): -10.8564     alpha+bet :-15.5359

[...]

 k-point    75 :      -0.4444   -0.4444    0.4444
  band No.  band energies     occupation
      1       1.0555      2.00000
      2       1.0902      2.00000
      3       2.5717      2.00000
      4       2.5718      2.00000
      5      10.7953      0.00000
      6      18.1641      0.00000
      7      21.0903      0.00000
      8      21.0903      0.00000

 soft charge-density along one line, spin component           1
         0         1         2         3         4         5         6         7         8         9
 total charge-density along one line

------------------------ aborting loop because EDIFF is reached ----------------------------------------

  FORCE on cell =-STRESS in cart. coord.  units (eV):
  Direction    XX          YY          ZZ          XY          YZ          ZX
  Alpha Z     4.36103     4.36103     4.36103
  Ewald     -86.74234   -86.74234   -90.94875    -0.00000    -0.00000    -0.00000
  Hartree     0.87072     0.87072     0.79203     0.00000    -0.00000    -0.00000
  E(xc)     -25.41688   -25.41688   -25.25577     0.00010     0.00005     0.00005
  Local     -15.73574   -15.73574    -9.16000    -0.00004    -0.00012    -0.00012
  n-local    78.20582    77.96040    75.18291     1.18522    -0.51600    -0.48104
  augment   -12.02105   -12.02105   -11.74419     0.00008     0.00008     0.00008
  Kinetic    59.48204    53.64729    56.68847     3.26358    -1.46786    -2.49074
  Fock        0.00000     0.00000     0.00000     0.00000     0.00000     0.00000
  Total      -0.03649    -0.03649    -0.08426     0.00000    -0.00000     0.00000
  in kB      -1.89328    -1.89328    -4.37236     0.00000    -0.00000     0.00000

 VOLUME and BASIS-vectors are now :
  energy-cutoff  :      150.00
  volume of cell :       30.88
      direct lattice vectors                 reciprocal lattice vectors
    -2.398299160  2.398299160  1.342017577    -0.000000000  0.208481080  0.372573362
     2.398299160 -2.398299160  1.342017577     0.208481080 -0.000000000  0.372573362
     2.398299160  2.398299160 -1.342017577     0.208481080  0.208481080  0.000000000

  length of vectors
     3.647559307  3.647559307  3.647559307     0.426937080  0.426937080  0.294836771

 FORCES acting on ions
    electron-ion (+dipol)            ewald-force                    non-local-force                 convergence-correction
   -.208E-04 0.208E-04 -.115E-13   0.163E-14 0.311E-15 0.551E-15   0.295E-16 -.538E-16 -.389E-17   -.296E-08 0.296E-08 0.157E-15
   0.208E-04 -.208E-04 -.298E-14   -.149E-14 -.399E-15 -.117E-17   -.262E-16 0.536E-16 0.940E-17   0.296E-08 -.296E-08 0.248E-15
   -.370E-14 0.301E-14 -.145E-13   0.134E-15 -.885E-16 0.550E-15   0.323E-17 -.239E-18 0.551E-17   -.287E-15 0.254E-15 0.405E-15

 POSITION                                       TOTAL-FORCE (eV/Angst)
      2.39830      0.00000      0.67101         0.000000      0.000000     -0.000000
     -0.00000     -0.00000     -0.00000        -0.000000     -0.000000      0.000000
    total drift:                               -0.000000      0.000000     -0.000000

  FREE ENERGIE OF THE ION-ELECTRON SYSTEM (eV)
  free  energy   TOTEN  =       -10.14454949 eV

  energy  without entropy=      -10.13198167  energy(sigma->0) =      -10.13826558

 d Force = 0.0000000E+00[ 0.000E+00, 0.000E+00]  d Energy = 0.8543665E-07-0.854E-07
 d Force = 0.0000000E+00[ 0.000E+00, 0.000E+00]  d Ewald  = 0.4887912E-03-0.489E-03

 writing wavefunctions