 vasp.5.4.4.18Apr17-6-g9f103f2a35 (build Dec 09 2018 21:25:21) complex

 executed on IFC18.0.1.163_CrayMP date 2019.03.20  09:41:18

 INCAR:
 POTCAR:   PAW_PBE Si 05Jan2001

 POTCAR:   PAW_PBE Si 05Jan2001
   VRHFIN =Si: s2p2

   TITEL  = PAW_PBE Si 05Jan2001
   POMASS =   28.085; ZVAL   =    4.000    mass and valenz
   ENMAX  =  245.345; ENMIN  =  184.009 eV
   QCUT   =   -4.246; QGAM   =    8.493    optimization parameters

   Description
     l     E      TYP  RCUT    TYP  RCUT
     0   .000     23  1.900
     0   .000     23  1.900
     1   .000     23  1.900
     1   .000     23  1.900
     2   .000      7  1.900

 PAW_PBE Si 05Jan2001                   :

 POSCAR: Si2
  positions in direct lattice
 exchange correlation table for  LEXCH =        8
   RHO(1)=    0.500       N(1)  =     2000
   RHO(2)=  100.500       N(2)  =     4000

 ion  position               nearest neighbor table
   1  0.500  0.500  0.500-   2 2.35   2 2.35   2 2.35   2 2.35
   2  0.750  0.750  0.750-   1 2.35   1 2.35   1 2.35   1 2.35

  LATTYP: Found a face centered cubic cell.
 ALAT       =     5.4300000000

  Lattice vectors:

 A1 = (   0.0000000000,   2.7150000000,   2.7150000000)
 A2 = (   2.7150000000,   0.0000000000,   2.7150000000)
 A3 = (   2.7150000000,   2.7150000000,   0.0000000000)

Analysis of symmetry for initial positions (statically):
 Subroutine PRICEL returns:
 Original cell was already a primitive cell.

 Routine SETGRP: Setting up the symmetry group for a
 face centered cubic supercell.

 Subroutine GETGRP returns: Found 48 space group operations
 (whereof 24 operations were pure point group operations)
 out of a pool of 48 trial point group operations.

The static configuration has the point symmetry T_d .
 The point group associated with its full space group is O_h .

Analysis of symmetry for dynamics (positions and initial velocities):
 Subroutine PRICEL returns:
 Original cell was already a primitive cell.

 Routine SETGRP: Setting up the symmetry group for a
 face centered cubic supercell.

 Subroutine GETGRP returns: Found 48 space group operations
 (whereof 24 operations were pure point group operations)
 out of a pool of 48 trial point group operations.

The dynamic configuration has the point symmetry T_d .
 The point group associated with its full space group is O_h .

 Subroutine INISYM returns: Found 48 space group operations
 (whereof 24 operations are pure point group operations),
 and found     1 'primitive' translations

 KPOINTS: Automatic kpoint scheme

Automatic generation of k-mesh.
Space group operators:
 irot       det(A)        alpha          n_x          n_y          n_z        tau_x        tau_y        tau_z
    1     1.000000     0.000001     1.000000     0.000000     0.000000     0.000000     0.000000     0.000000
    2     1.000000   120.000000    -0.577350    -0.577350    -0.577350     0.000000     0.000000     0.000000
    3     1.000000   120.000000     0.577350     0.577350     0.577350     0.000000     0.000000     0.000000
    4    -1.000000    90.000000    -0.000000    -0.000000    -1.000000     0.000000     0.000000     0.000000
    5    -1.000000   180.000000    -0.000000     0.707107     0.707107     0.000000     0.000000     0.000000
    6    -1.000000    90.000000    -0.000000     1.000000    -0.000000     0.000000     0.000000     0.000000
    7     1.000000   180.000000     0.000000     0.000000    -1.000000     0.000000     0.000000     0.000000
    8     1.000000   120.000000    -0.577350     0.577350     0.577350     0.000000     0.000000     0.000000
    9     1.000000   120.000000    -0.577350     0.577350    -0.577350     0.000000     0.000000     0.000000
   10    -1.000000    90.000000     0.000000     0.000000     1.000000     0.000000     0.000000     0.000000
   11    -1.000000    90.000000    -1.000000     0.000000    -0.000000     0.000000     0.000000     0.000000
   12    -1.000000   180.000000     0.707107     0.000000     0.707107     0.000000     0.000000     0.000000
   13     1.000000   120.000000     0.577350    -0.577350     0.577350     0.000000     0.000000     0.000000
   14     1.000000   120.000000    -0.577350    -0.577350     0.577350     0.000000     0.000000     0.000000
   15     1.000000   180.000000     1.000000     0.000000     0.000000     0.000000     0.000000     0.000000
   16    -1.000000    90.000000     0.000000    -1.000000     0.000000     0.000000     0.000000     0.000000
   17    -1.000000   180.000000     0.707107     0.707107    -0.000000     0.000000     0.000000     0.000000
   18    -1.000000    90.000000     1.000000     0.000000     0.000000     0.000000     0.000000     0.000000
   19     1.000000   120.000000     0.577350    -0.577350    -0.577350     0.000000     0.000000     0.000000
   20     1.000000   180.000000     0.000000    -1.000000     0.000000     0.000000     0.000000     0.000000
   21     1.000000   120.000000     0.577350     0.577350    -0.577350     0.000000     0.000000     0.000000
   22    -1.000000   180.000000    -0.000000    -0.707107     0.707107     0.000000     0.000000     0.000000
   23    -1.000000   180.000000     0.707107    -0.707107    -0.000000     0.000000     0.000000     0.000000
   24    -1.000000   180.000000    -0.707107     0.000000     0.707107     0.000000     0.000000     0.000000
   25    -1.000000     0.000001     1.000000     0.000000     0.000000     0.250000     0.250000     0.250000
   26    -1.000000   120.000000    -0.577350    -0.577350    -0.577350     0.250000     0.250000     0.250000
   27    -1.000000   120.000000     0.577350     0.577350     0.577350     0.250000     0.250000     0.250000
   28     1.000000    90.000000    -0.000000    -0.000000    -1.000000     0.250000     0.250000     0.250000
   29     1.000000   180.000000    -0.000000     0.707107     0.707107     0.250000     0.250000     0.250000
   30     1.000000    90.000000    -0.000000     1.000000    -0.000000     0.250000     0.250000     0.250000
   31    -1.000000   180.000000     0.000000     0.000000    -1.000000     0.250000     0.250000     0.250000
   32    -1.000000   120.000000    -0.577350     0.577350     0.577350     0.250000     0.250000     0.250000
   33    -1.000000   120.000000    -0.577350     0.577350    -0.577350     0.250000     0.250000     0.250000
   34     1.000000    90.000000     0.000000     0.000000     1.000000     0.250000     0.250000     0.250000
   35     1.000000    90.000000    -1.000000     0.000000    -0.000000     0.250000     0.250000     0.250000
   36     1.000000   180.000000     0.707107     0.000000     0.707107     0.250000     0.250000     0.250000
   37    -1.000000   120.000000     0.577350    -0.577350     0.577350     0.250000     0.250000     0.250000
   38    -1.000000   120.000000    -0.577350    -0.577350     0.577350     0.250000     0.250000     0.250000
   39    -1.000000   180.000000     1.000000     0.000000     0.000000     0.250000     0.250000     0.250000
   40     1.000000    90.000000     0.000000    -1.000000     0.000000     0.250000     0.250000     0.250000
   41     1.000000   180.000000     0.707107     0.707107    -0.000000     0.250000     0.250000     0.250000
   42     1.000000    90.000000     1.000000     0.000000     0.000000     0.250000     0.250000     0.250000
   43    -1.000000   120.000000     0.577350    -0.577350    -0.577350     0.250000     0.250000     0.250000
   44    -1.000000   180.000000     0.000000    -1.000000     0.000000     0.250000     0.250000     0.250000
   45    -1.000000   120.000000     0.577350     0.577350    -0.577350     0.250000     0.250000     0.250000
   46     1.000000   180.000000    -0.000000    -0.707107     0.707107     0.250000     0.250000     0.250000
   47     1.000000   180.000000     0.707107    -0.707107    -0.000000     0.250000     0.250000     0.250000
   48     1.000000   180.000000    -0.707107     0.000000     0.707107     0.250000     0.250000     0.250000

 Subroutine IBZKPT returns following result:

 Found    182 irreducible k-points:

 Following reciprocal coordinates:
            Coordinates               Weight
  0.041667  0.041667  0.041667     96.000000
  0.125000  0.041667  0.041667    288.000000
  0.208333  0.041667  0.041667    288.000000
  0.291667  0.041667  0.041667    288.000000
  0.375000  0.041667  0.041667    288.000000
  0.458333  0.041667  0.041667    288.000000
 -0.458333  0.041667  0.041667    288.000000
 -0.375000  0.041667  0.041667    288.000000
 -0.291667  0.041667  0.041667    288.000000
 -0.208333  0.041667  0.041667    288.000000
 -0.125000  0.041667  0.041667    288.000000
 -0.041667  0.041667  0.041667    288.000000
  0.125000  0.125000  0.041667    288.000000
  0.208333  0.125000  0.041667    576.000000
  0.291667  0.125000  0.041667    576.000000
  0.375000  0.125000  0.041667    576.000000
  0.458333  0.125000  0.041667    576.000000
 -0.458333  0.125000  0.041667    576.000000
 -0.375000  0.125000  0.041667    576.000000
 -0.291667  0.125000  0.041667    576.000000
 -0.208333  0.125000  0.041667    576.000000
 -0.125000  0.125000  0.041667    576.000000
 -0.041667  0.125000  0.041667    576.000000
  0.208333  0.208333  0.041667    288.000000
  0.291667  0.208333  0.041667    576.000000
  0.375000  0.208333  0.041667    576.000000
  0.458333  0.208333  0.041667    576.000000
 -0.458333  0.208333  0.041667    576.000000
 -0.375000  0.208333  0.041667    576.000000
 -0.291667  0.208333  0.041667    576.000000
 -0.208333  0.208333  0.041667    576.000000
 -0.125000  0.208333  0.041667    576.000000
 -0.041667  0.208333  0.041667    576.000000
  0.291667  0.291667  0.041667    288.000000
  0.375000  0.291667  0.041667    576.000000
  0.458333  0.291667  0.041667    576.000000
 -0.458333  0.291667  0.041667    576.000000
 -0.375000  0.291667  0.041667    576.000000
 -0.291667  0.291667  0.041667    576.000000
 -0.208333  0.291667  0.041667    576.000000
 -0.125000  0.291667  0.041667    576.000000
 -0.041667  0.291667  0.041667    576.000000
  0.375000  0.375000  0.041667    288.000000
  0.458333  0.375000  0.041667    576.000000
 -0.458333  0.375000  0.041667    576.000000
 -0.375000  0.375000  0.041667    576.000000
 -0.291667  0.375000  0.041667    576.000000
 -0.208333  0.375000  0.041667    576.000000
 -0.125000  0.375000  0.041667    576.000000
 -0.041667  0.375000  0.041667    576.000000
  0.458333  0.458333  0.041667    288.000000
 -0.458333  0.458333  0.041667    576.000000
 -0.375000  0.458333  0.041667    576.000000
 -0.291667  0.458333  0.041667    576.000000
 -0.208333  0.458333  0.041667    576.000000
 -0.125000  0.458333  0.041667    576.000000
 -0.041667  0.458333  0.041667    576.000000
 -0.458333 -0.458333  0.041667    288.000000
 -0.375000 -0.458333  0.041667    576.000000
 -0.291667 -0.458333  0.041667    576.000000
[...]
 -0.375000  0.458333  0.291667    576.000000
 -0.291667  0.458333  0.291667    576.000000
 -0.458333 -0.458333  0.291667    288.000000
 -0.375000 -0.458333  0.291667    576.000000
 -0.375000 -0.375000  0.291667    288.000000
  0.375000  0.375000  0.375000     96.000000
  0.458333  0.375000  0.375000    288.000000
 -0.458333  0.375000  0.375000    288.000000
[...]
[...]
 k-point 85 :   0.3750 0.2083 0.1250  plane waves:     166
 k-point 86 :   0.4583 0.2083 0.1250  plane waves:     165
 k-point 87 :  -0.4583 0.2083 0.1250  plane waves:     168
 k-point 88 :  -0.3750 0.2083 0.1250  plane waves:     166
 k-point 89 :  -0.2917 0.2083 0.1250  plane waves:     167
 k-point 90 :  -0.2083 0.2083 0.1250  plane waves:     166
 k-point 91 :  -0.1250 0.2083 0.1250  plane waves:     165
 k-point 92 :   0.2917 0.2917 0.1250  plane waves:     162
 k-point 93 :   0.3750 0.2917 0.1250  plane waves:     165
 k-point 94 :   0.4583 0.2917 0.1250  plane waves:     168
 k-point 95 :  -0.4583 0.2917 0.1250  plane waves:     166
 k-point 96 :  -0.3750 0.2917 0.1250  plane waves:     168
 k-point 97 :  -0.2917 0.2917 0.1250  plane waves:     169
 k-point 98 :  -0.2083 0.2917 0.1250  plane waves:     167
 k-point 99 :  -0.1250 0.2917 0.1250  plane waves:     166
 k-point ** :   0.3750 0.3750 0.1250  plane waves:     163
 k-point ** :   0.4583 0.3750 0.1250  plane waves:     170
 k-point ** :  -0.4583 0.3750 0.1250  plane waves:     167
 k-point ** :  -0.3750 0.3750 0.1250  plane waves:     167
 k-point ** :  -0.2917 0.3750 0.1250  plane waves:     171
 k-point ** :  -0.2083 0.3750 0.1250  plane waves:     167
 k-point ** :  -0.1250 0.3750 0.1250  plane waves:     167
 k-point ** :   0.4583 0.4583 0.1250  plane waves:     168
 k-point ** :  -0.4583 0.4583 0.1250  plane waves:     168
 k-point ** :  -0.3750 0.4583 0.1250  plane waves:     169
 k-point ** :  -0.2917 0.4583 0.1250  plane waves:     169
 k-point ** :  -0.2083 0.4583 0.1250  plane waves:     168
 k-point ** :  -0.1250 0.4583 0.1250  plane waves:     168
 k-point ** :  -0.4583-0.4583 0.1250  plane waves:     174
 k-point ** :  -0.3750-0.4583 0.1250  plane waves:     170
 k-point ** :  -0.2917-0.4583 0.1250  plane waves:     169
 k-point ** :  -0.2083-0.4583 0.1250  plane waves:     166
 k-point ** :  -0.3750-0.3750 0.1250  plane waves:     170
 k-point ** :  -0.2917-0.3750 0.1250  plane waves:     171
 k-point ** :  -0.2083-0.3750 0.1250  plane waves:     169
 k-point ** :  -0.2917-0.2917 0.1250  plane waves:     167
 k-point ** :  -0.2083-0.2917 0.1250  plane waves:     166
 k-point ** :  -0.2083-0.2083 0.1250  plane waves:     163
 k-point ** :   0.2083 0.2083 0.2083  plane waves:     168
 k-point ** :   0.2917 0.2083 0.2083  plane waves:     163
 k-point ** :   0.3750 0.2083 0.2083  plane waves:     166
 k-point ** :   0.4583 0.2083 0.2083  plane waves:     165
 k-point ** :  -0.4583 0.2083 0.2083  plane waves:     168
 k-point ** :  -0.3750 0.2083 0.2083  plane waves:     168
 k-point ** :  -0.2917 0.2083 0.2083  plane waves:     168
 k-point ** :  -0.2083 0.2083 0.2083  plane waves:     167
 k-point ** :   0.2917 0.2917 0.2083  plane waves:     161
 k-point ** :   0.3750 0.2917 0.2083  plane waves:     165
 k-point ** :   0.4583 0.2917 0.2083  plane waves:     165
 k-point ** :  -0.4583 0.2917 0.2083  plane waves:     168
 k-point ** :  -0.3750 0.2917 0.2083  plane waves:     170
 k-point ** :  -0.2917 0.2917 0.2083  plane waves:     168
 k-point ** :  -0.2083 0.2917 0.2083  plane waves:     169
 k-point ** :   0.3750 0.3750 0.2083  plane waves:     164
 k-point ** :   0.4583 0.3750 0.2083  plane waves:     167
 k-point ** :  -0.4583 0.3750 0.2083  plane waves:     168
 k-point ** :  -0.3750 0.3750 0.2083  plane waves:     165
 k-point ** :  -0.2917 0.3750 0.2083  plane waves:     167
 k-point ** :  -0.2083 0.3750 0.2083  plane waves:     164
 k-point ** :   0.4583 0.4583 0.2083  plane waves:     169
 k-point ** :  -0.4583 0.4583 0.2083  plane waves:     170
 k-point ** :  -0.3750 0.4583 0.2083  plane waves:     165
 k-point ** :  -0.2917 0.4583 0.2083  plane waves:     169
 k-point ** :  -0.2083 0.4583 0.2083  plane waves:     166
 k-point ** :  -0.4583-0.4583 0.2083  plane waves:     172
 k-point ** :  -0.3750-0.4583 0.2083  plane waves:     171
 k-point ** :  -0.2917-0.4583 0.2083  plane waves:     167
 k-point ** :  -0.3750-0.3750 0.2083  plane waves:     170
 k-point ** :  -0.2917-0.3750 0.2083  plane waves:     170
 k-point ** :  -0.2917-0.2917 0.2083  plane waves:     170
 k-point ** :   0.2917 0.2917 0.2917  plane waves:     162
 k-point ** :   0.3750 0.2917 0.2917  plane waves:     159
 k-point ** :   0.4583 0.2917 0.2917  plane waves:     164
 k-point ** :  -0.4583 0.2917 0.2917  plane waves:     169
 k-point ** :  -0.3750 0.2917 0.2917  plane waves:     170
[...]
 k-point ** :  -0.3750 0.4583 0.2917  plane waves:     168
 k-point ** :  -0.2917 0.4583 0.2917  plane waves:     169
 k-point ** :  -0.4583-0.4583 0.2917  plane waves:     172
 k-point ** :  -0.3750-0.4583 0.2917  plane waves:     170
 k-point ** :  -0.3750-0.3750 0.2917  plane waves:     170
 k-point ** :   0.3750 0.3750 0.3750  plane waves:     162
 k-point ** :   0.4583 0.3750 0.3750  plane waves:     167
 k-point ** :  -0.4583 0.3750 0.3750  plane waves:     166
 k-point ** :  -0.3750 0.3750 0.3750  plane waves:     172
 k-point ** :   0.4583 0.4583 0.3750  plane waves:     167
 k-point ** :  -0.4583 0.4583 0.3750  plane waves:     167
 k-point ** :  -0.3750 0.4583 0.3750  plane waves:     169
 k-point ** :  -0.4583-0.4583 0.3750  plane waves:     168
 k-point ** :   0.4583 0.4583 0.4583  plane waves:     168
 k-point ** :  -0.4583 0.4583 0.4583  plane waves:     165

 maximum and minimum number of plane-waves per node :       174      159

 maximum number of plane-waves:       174
 maximum index in each direction:
   IXMAX=    4   IYMAX=    4   IZMAX=    3
   IXMIN=   -4   IYMIN=   -4   IZMIN=   -4

 serial   3D FFT for wavefunctions
 parallel 3D FFT for charge:
    minimum data exchange during FFTs selected (reduces bandwidth)

 Broyden mixing: mesh for mixing (old mesh)
   NGX =  7   NGY =  7   NGZ =  7
  (NGX  = 24   NGY  = 24   NGZ  = 24)
  gives a total of    343 points

 initial charge density was supplied:
 charge density of overlapping atoms calculated
 number of electron       8.0000000 magnetization
 keeping initial charge density in first step

 Maximum index for augmentation-charges          204 (set IRDMAX)

 First call to EWALD:  gamma=   0.518
 Maximum number of real-space cells 3x 3x 3
 Maximum number of reciprocal cells 3x 3x 3

--------------------------------------- Iteration      1(   1)  ---------------------------------------

 eigenvalue-minimisations  :  3184
 total energy-change (2. order) :-0.4217338E+01  (-0.1755951E+03)
 number of electron       8.0000000 magnetization
 augmentation part        8.0000000 magnetization

 Free energy of the ion-electron system (eV)
  alpha Z        PSCENC =         3.36414203
  Ewald energy   TEWEN  =      -228.56352493
  -Hartree energ DENC   =       -11.00108243
  -exchange      EXHF   =         0.00000000
  -V(xc)+E(xc)   XCENC  =       -18.60155909
  PAW double counting   =        65.95520812      -30.76852678
  entropy T*S    EENTRO =        -0.01047026
  eigenvalues    EBANDS =         9.31663928
  atomic energy  EATOM  =       206.09183643
  Solvation  Ediel_sol  =         0.00000000
  free energy    TOTEN  =        -4.21733764 eV

  energy without entropy =       -4.20686738  energy(sigma->0) =       -4.21210251

[...]

 Broyden mixing:
  rms(total) = 0.29579E+00    rms(broyden)= 0.29536E+00
  rms(prec ) = 0.85985E+00
  weight for this iteration     100.00

[...]

 eigenvalue-minimisations  :  3304
 total energy-change (2. order) : 0.1239247E+00  (-0.7680577E-02)
 number of electron       8.0000042 magnetization
 augmentation part       -0.4594673 magnetization

[...]

 eigenvalues of (default mixing * dielectric matrix)
  average eigenvalue GAMMA=   2.4359
  2.4359

[...]

 average (electrostatic) potential at core
  the test charge radii are     0.9892
  (the norm of the test charge is              1.0000)
       1 -83.2678       2 -83.2678

 E-fermi :   6.1785     XC(G=0):  -9.4163     alpha+bet :-11.9845

 k-point     1 :       0.0417    0.0417    0.0417
  band No.  band energies     occupation
      1      -6.1134      2.00000
      2       5.6155      1.99993
      3       5.8358      1.98464
      4       5.8358      1.98464
      5       8.5055      0.00000
      6       8.5124      0.00000
      7       8.5124      0.00000
      8       9.3652      0.00000

[...]

 soft charge-density along one line, spin component           1
         0         1         2         3         4         5         6         7         8         9
 total charge-density along one line

------------------------ aborting loop because EDIFF is reached ----------------------------------------

  FORCE on cell =-STRESS in cart. coord.  units (eV):
  Direction    XX          YY          ZZ          XY          YZ          ZX
  Alpha Z     3.36414     3.36414     3.36414
  Ewald     -76.18788   -76.18788   -76.18788    -0.00000    -0.00000     0.00000
  Hartree     4.96066     4.96066     4.96066     0.00000     0.00000     0.00000
  E(xc)     -25.38789   -25.38789   -25.38789    -0.00014    -0.00014    -0.00014
  Local     -29.42160   -29.42160   -29.42160     0.00023     0.00023     0.00023
  n-local    78.28579    80.67295    75.81716     1.05543    -1.07317     0.01774
  augment   -11.52323   -11.52323   -11.52323    -0.00015    -0.00015    -0.00015
  Kinetic    58.05784    55.74726    55.47428     0.86612    -0.88598     0.01775
  Fock        0.00000     0.00000     0.00000     0.00000     0.00000     0.00000
  Total       0.48930     0.48930     0.48930     0.00000    -0.00000    -0.00000
  in kB      19.58589    19.58589    19.58589     0.00000    -0.00000    -0.00000

 VOLUME and BASIS-vectors are now :
  energy-cutoff  :      150.00
  volume of cell :       40.03
      direct lattice vectors                 reciprocal lattice vectors
     0.000000000  2.715000000  2.715000000    -0.184162063  0.184162063  0.184162063
     2.715000000  0.000000000  2.715000000     0.184162063 -0.184162063  0.184162063
     2.715000000  2.715000000  0.000000000     0.184162063  0.184162063 -0.184162063

[...]

 FORCES acting on ions
    electron-ion (+dipol)            ewald-force                    non-local-force                 convergence-correction
   0.659E-05 0.659E-05 0.632E-05   -.476E-15 -.149E-14 0.391E-14   0.342E-17 -.105E-16 0.532E-17   -.191E-05 -.191E-05 -.191E-05
   -.659E-05 -.659E-05 -.632E-05   0.623E-15 0.106E-14 -.375E-14   -.955E-17 0.113E-16 -.103E-16   0.191E-05 0.191E-05 0.191E-05
   -.112E-12 -.609E-13 -.233E-13   0.147E-15 -.426E-15 0.164E-15   -.612E-17 0.815E-18 -.499E-17   -.104E-14 -.266E-15 -.203E-16

 POSITION                                       TOTAL-FORCE (eV/Angst)
      2.71500      2.71500      2.71500        -0.000000     -0.000000     -0.000000
      4.07250      4.07250      4.07250         0.000000      0.000000      0.000000
    total drift:                               -0.000000     -0.000000     -0.000000

  FREE ENERGIE OF THE ION-ELECTRON SYSTEM (eV)
  free  energy   TOTEN  =       -10.74480786 eV

  energy  without entropy=      -10.74475843  energy(sigma->0) =      -10.74478315

[...]

 d Force = 0.0000000E+00[ 0.000E+00, 0.000E+00]  d Energy = 0.2515165E-02-0.252E-02
 d Force = 0.0000000E+00[ 0.000E+00, 0.000E+00]  d Ewald  =-0.2666151E+01 0.267E+01

 Steepest descent step on ions:
 trial-energy change:   -0.002515  1 .order   -0.002901   -0.017325    0.011522
  (g-gl).g = 0.173E-01      g.g   = 0.173E-01  gl.gl    = 0.000E+00
 g(Force)  = 0.775E-44   g(Stress)= 0.173E-01 ortho     = 0.000E+00
 gamma     =   0.00000
 trial     =   1.00000
 opt step  =   0.60057  (harmonic =   0.60057) maximal distance =0.00000000
 next E    =   -10.750010   (d E  =  -0.00520)

[...]

 eigenvalue-minimisations  :  3664
 total energy-change (2. order) :-0.3494095E-02  (-0.4278437E-02)
 number of electron       8.0000015 magnetization
 augmentation part       -0.4517999 magnetization

[...]

 Broyden mixing:
  rms(total) = 0.74592E-02    rms(broyden)= 0.74492E-02
  rms(prec ) = 0.27230E-01
  weight for this iteration     100.00

 eigenvalues of (default mixing * dielectric matrix)
  average eigenvalue GAMMA=   2.3079
  2.3079

[...]

--------------------------------------- Iteration      3(   3)  ---------------------------------------

 eigenvalue-minimisations  :  2288
 total energy-change (2. order) : 0.3700850E-03  (-0.7501091E-04)
 number of electron       8.0000015 magnetization
 augmentation part       -0.4522339 magnetization

 Free energy of the ion-electron system (eV)
  alpha Z        PSCENC =         3.29360686
  Ewald energy   TEWEN  =      -226.95481644
  -Hartree energ DENC   =       -15.13260473
  -exchange      EXHF   =         0.00000000
  -V(xc)+E(xc)   XCENC  =       -18.02298859
  PAW double counting   =        75.87234701      -40.90135954
  entropy T*S    EENTRO =        -0.00003409
  eigenvalues    EBANDS =         5.00427336
  atomic energy  EATOM  =       206.09183643
  Solvation  Ediel_sol  =         0.00000000
  free energy    TOTEN  =       -10.74973972 eV

  energy without entropy =      -10.74970563  energy(sigma->0) =      -10.74972267

 average (electrostatic) potential at core
  the test charge radii are     0.9892
  (the norm of the test charge is              1.0000)
       1 -83.5005       2 -83.5005

 E-fermi :   5.9866     XC(G=0):  -9.3302     alpha+bet :-11.7333

[...]

 k-point   182 :      -0.4583    0.4583    0.4583
  band No.  band energies     occupation
      1      -3.8518      2.00000
      2      -1.1977      2.00000
      3       3.8191      2.00000
      4       4.3454      2.00000
      5       7.6476      0.00000
      6       9.0368      0.00000
      7       9.3633      0.00000
      8      13.6628      0.00000

 soft charge-density along one line, spin component           1
         0         1         2         3         4         5         6         7         8         9
 total charge-density along one line

------------------------ aborting loop because EDIFF is reached ----------------------------------------

  FORCE on cell =-STRESS in cart. coord.  units (eV):
  Direction    XX          YY          ZZ          XY          YZ          ZX
  Alpha Z     3.29361     3.29361     3.29361
  Ewald     -75.65164   -75.65164   -75.65164    -0.00000    -0.00000     0.00000
  Hartree     5.04518     5.04518     5.04518     0.00000     0.00000     0.00000
  E(xc)     -25.26634   -25.26634   -25.26634    -0.00018    -0.00018    -0.00018
  Local     -29.70518   -29.70518   -29.70517     0.00024     0.00024     0.00024
  n-local    77.87064    80.25125    75.41606     1.03278    -1.05009     0.01788
  augment   -11.51549   -11.51549   -11.51549    -0.00017    -0.00017    -0.00017
  Kinetic    57.51917    55.44172    54.85756     0.88404    -0.90428     0.01793
  Fock        0.00000     0.00000     0.00000     0.00000     0.00000     0.00000
  Total      -0.01440    -0.01440    -0.01440    -0.00000     0.00000    -0.00000
  in kB      -0.56443    -0.56443    -0.56443    -0.00000     0.00000    -0.00000

 VOLUME and BASIS-vectors are now :
  energy-cutoff  :      150.00
  volume of cell :       40.88
      direct lattice vectors                 reciprocal lattice vectors
     0.000000000  2.734244551  2.734244551    -0.182865867  0.182865867  0.182865867
     2.734244551  0.000000000  2.734244551     0.182865867 -0.182865867  0.182865867
     2.734244551  2.734244551 -0.000000000     0.182865867  0.182865867 -0.182865867

  length of vectors
     3.866805727  3.866805727  3.866805727     0.316732972  0.316732972  0.316732972

 FORCES acting on ions
    electron-ion (+dipol)            ewald-force                    non-local-force                 convergence-correction
   0.108E-04 0.108E-04 0.104E-04   -.283E-14 0.351E-14 -.253E-14   0.634E-17 -.600E-18 0.930E-18   0.705E-06 0.705E-06 0.705E-06
   -.108E-04 -.108E-04 -.104E-04   0.254E-14 -.340E-14 0.282E-14   -.162E-17 -.162E-17 -.535E-17   -.705E-06 -.705E-06 -.705E-06
   -.144E-12 -.785E-13 -.296E-13   -.282E-15 0.104E-15 0.290E-15   0.472E-17 -.222E-17 -.442E-17   0.710E-14 0.341E-14 -.222E-14

 POSITION                                       TOTAL-FORCE (eV/Angst)
      2.73424      2.73424      2.73424        -0.000000     -0.000000     -0.000000
      4.10137      4.10137      4.10137         0.000000      0.000000      0.000000
    total drift:                               -0.000000     -0.000000     -0.000000

  FREE ENERGIE OF THE ION-ELECTRON SYSTEM (eV)
  free  energy   TOTEN  =       -10.74973972 eV

  energy  without entropy=      -10.74970563  energy(sigma->0) =      -10.74972267

 d Force = 0.0000000E+00[ 0.000E+00, 0.000E+00]  d Energy = 0.2416688E-02-0.242E-02
 d Force = 0.0000000E+00[ 0.000E+00, 0.000E+00]  d Ewald  = 0.1057442E+01-0.106E+01

 reached required accuracy - stopping structural energy minimisation
 writing wavefunctions