 vasp.5.4.4.18Apr17-6-g9f103f2a35 (build Dec 09 2018 21:25:21) complex

 executed on IFC18.0.1.163_CrayMP date 2019.03.19  13:26:44

 INCAR:
 POTCAR:   PAW_PBE Si 05Jan2001

 POTCAR:   PAW_PBE Si 05Jan2001
   VRHFIN =Si: s2p2

   TITEL  = PAW_PBE Si 05Jan2001
   POMASS =   28.085; ZVAL   =    4.000    mass and valenz
   ENMAX  =  245.345; ENMIN  =  184.009 eV
   QCUT   =   -4.246; QGAM   =    8.493    optimization parameters

   Description
     l     E      TYP  RCUT    TYP  RCUT
     0   .000     23  1.900
     0   .000     23  1.900
     1   .000     23  1.900
     1   .000     23  1.900
     2   .000      7  1.900

 PAW_PBE Si 05Jan2001                   :

 POSCAR: Si2
  positions in direct lattice
 exchange correlation table for  LEXCH =        8
   RHO(1)=    0.500       N(1)  =     2000
   RHO(2)=  100.500       N(2)  =     4000

 ion  position               nearest neighbor table
   1  0.500  0.500  0.500-   2 2.35   2 2.35   2 2.35   2 2.35
   2  0.750  0.750  0.750-   1 2.35   1 2.35   1 2.35   1 2.35

  LATTYP: Found a face centered cubic cell.
 ALAT       =     5.4300000000

  Lattice vectors:

 A1 = (   0.0000000000,   2.7150000000,   2.7150000000)
 A2 = (   2.7150000000,   0.0000000000,   2.7150000000)
 A3 = (   2.7150000000,   2.7150000000,   0.0000000000)

Analysis of symmetry for initial positions (statically):
 Subroutine PRICEL returns:
 Original cell was already a primitive cell.

 Routine SETGRP: Setting up the symmetry group for a
 face centered cubic supercell.

 Subroutine GETGRP returns: Found 48 space group operations
 (whereof 24 operations were pure point group operations)
 out of a pool of 48 trial point group operations.

The static configuration has the point symmetry T_d .
 The point group associated with its full space group is O_h .

Analysis of symmetry for dynamics (positions and initial velocities):
 Subroutine PRICEL returns:
 Original cell was already a primitive cell.

 Routine SETGRP: Setting up the symmetry group for a
 face centered cubic supercell.

 Subroutine GETGRP returns: Found 48 space group operations
 (whereof 24 operations were pure point group operations)
 out of a pool of 48 trial point group operations.

The dynamic configuration has the point symmetry T_d .
 The point group associated with its full space group is O_h .

 Subroutine INISYM returns: Found 48 space group operations
 (whereof 24 operations are pure point group operations),
 and found     1 'primitive' translations

 KPOINTS: Automatic kpoint scheme

Automatic generation of k-mesh.
Space group operators:
 irot       det(A)        alpha          n_x          n_y          n_z        tau_x        tau_y        tau_z
    1     1.000000     0.000001     1.000000     0.000000     0.000000     0.000000     0.000000     0.000000
    2     1.000000   120.000000    -0.577350    -0.577350    -0.577350     0.000000     0.000000     0.000000
    3     1.000000   120.000000     0.577350     0.577350     0.577350     0.000000     0.000000     0.000000
    4    -1.000000    90.000000    -0.000000    -0.000000    -1.000000     0.000000     0.000000     0.000000
    5    -1.000000   180.000000    -0.000000     0.707107     0.707107     0.000000     0.000000     0.000000
    6    -1.000000    90.000000    -0.000000     1.000000    -0.000000     0.000000     0.000000     0.000000
    7     1.000000   180.000000     0.000000     0.000000    -1.000000     0.000000     0.000000     0.000000
    8     1.000000   120.000000    -0.577350     0.577350     0.577350     0.000000     0.000000     0.000000
    9     1.000000   120.000000    -0.577350     0.577350    -0.577350     0.000000     0.000000     0.000000
   10    -1.000000    90.000000     0.000000     0.000000     1.000000     0.000000     0.000000     0.000000
   11    -1.000000    90.000000    -1.000000     0.000000    -0.000000     0.000000     0.000000     0.000000
   12    -1.000000   180.000000     0.707107     0.000000     0.707107     0.000000     0.000000     0.000000
   13     1.000000   120.000000     0.577350    -0.577350     0.577350     0.000000     0.000000     0.000000
   14     1.000000   120.000000    -0.577350    -0.577350     0.577350     0.000000     0.000000     0.000000
   15     1.000000   180.000000     1.000000     0.000000     0.000000     0.000000     0.000000     0.000000
   16    -1.000000    90.000000     0.000000    -1.000000     0.000000     0.000000     0.000000     0.000000
   17    -1.000000   180.000000     0.707107     0.707107    -0.000000     0.000000     0.000000     0.000000
   18    -1.000000    90.000000     1.000000     0.000000     0.000000     0.000000     0.000000     0.000000
   19     1.000000   120.000000     0.577350    -0.577350    -0.577350     0.000000     0.000000     0.000000
   20     1.000000   180.000000     0.000000    -1.000000     0.000000     0.000000     0.000000     0.000000
   21     1.000000   120.000000     0.577350     0.577350    -0.577350     0.000000     0.000000     0.000000
   22    -1.000000   180.000000    -0.000000    -0.707107     0.707107     0.000000     0.000000     0.000000
   23    -1.000000   180.000000     0.707107    -0.707107    -0.000000     0.000000     0.000000     0.000000
   24    -1.000000   180.000000    -0.707107     0.000000     0.707107     0.000000     0.000000     0.000000
   25    -1.000000     0.000001     1.000000     0.000000     0.000000     0.250000     0.250000     0.250000
   26    -1.000000   120.000000    -0.577350    -0.577350    -0.577350     0.250000     0.250000     0.250000
   27    -1.000000   120.000000     0.577350     0.577350     0.577350     0.250000     0.250000     0.250000
   28     1.000000    90.000000    -0.000000    -0.000000    -1.000000     0.250000     0.250000     0.250000
   29     1.000000   180.000000    -0.000000     0.707107     0.707107     0.250000     0.250000     0.250000
   30     1.000000    90.000000    -0.000000     1.000000    -0.000000     0.250000     0.250000     0.250000
   31    -1.000000   180.000000     0.000000     0.000000    -1.000000     0.250000     0.250000     0.250000
   32    -1.000000   120.000000    -0.577350     0.577350     0.577350     0.250000     0.250000     0.250000
   33    -1.000000   120.000000    -0.577350     0.577350    -0.577350     0.250000     0.250000     0.250000
   34     1.000000    90.000000     0.000000     0.000000     1.000000     0.250000     0.250000     0.250000
   35     1.000000    90.000000    -1.000000     0.000000    -0.000000     0.250000     0.250000     0.250000
   36     1.000000   180.000000     0.707107     0.000000     0.707107     0.250000     0.250000     0.250000
   37    -1.000000   120.000000     0.577350    -0.577350     0.577350     0.250000     0.250000     0.250000
   38    -1.000000   120.000000    -0.577350    -0.577350     0.577350     0.250000     0.250000     0.250000
   39    -1.000000   180.000000     1.000000     0.000000     0.000000     0.250000     0.250000     0.250000
   40     1.000000    90.000000     0.000000    -1.000000     0.000000     0.250000     0.250000     0.250000
   41     1.000000   180.000000     0.707107     0.707107    -0.000000     0.250000     0.250000     0.250000
   42     1.000000    90.000000     1.000000     0.000000     0.000000     0.250000     0.250000     0.250000
   43    -1.000000   120.000000     0.577350    -0.577350    -0.577350     0.250000     0.250000     0.250000
   44    -1.000000   180.000000     0.000000    -1.000000     0.000000     0.250000     0.250000     0.250000
   45    -1.000000   120.000000     0.577350     0.577350    -0.577350     0.250000     0.250000     0.250000
   46     1.000000   180.000000    -0.000000    -0.707107     0.707107     0.250000     0.250000     0.250000
   47     1.000000   180.000000     0.707107    -0.707107    -0.000000     0.250000     0.250000     0.250000
   48     1.000000   180.000000    -0.707107     0.000000     0.707107     0.250000     0.250000     0.250000

 Subroutine IBZKPT returns following result:

 Found     60 irreducible k-points:

 Following reciprocal coordinates:
            Coordinates               Weight
  0.062500  0.062500  0.062500     96.000000
  0.187500  0.062500  0.062500    288.000000
  0.312500  0.062500  0.062500    288.000000
  0.437500  0.062500  0.062500    288.000000
 -0.437500  0.062500  0.062500    288.000000
 -0.312500  0.062500  0.062500    288.000000
 -0.187500  0.062500  0.062500    288.000000
 -0.062500  0.062500  0.062500    288.000000
  0.187500  0.187500  0.062500    288.000000
  0.312500  0.187500  0.062500    576.000000
  0.437500  0.187500  0.062500    576.000000
 -0.437500  0.187500  0.062500    576.000000
 -0.312500  0.187500  0.062500    576.000000
 -0.187500  0.187500  0.062500    576.000000
 -0.062500  0.187500  0.062500    576.000000
  0.312500  0.312500  0.062500    288.000000
  0.437500  0.312500  0.062500    576.000000
 -0.437500  0.312500  0.062500    576.000000
 -0.312500  0.312500  0.062500    576.000000
 -0.187500  0.312500  0.062500    576.000000
 -0.062500  0.312500  0.062500    576.000000
  0.437500  0.437500  0.062500    288.000000
 -0.437500  0.437500  0.062500    576.000000
 -0.312500  0.437500  0.062500    576.000000
 -0.187500  0.437500  0.062500    576.000000
 -0.062500  0.437500  0.062500    576.000000
 -0.437500 -0.437500  0.062500    288.000000
 -0.312500 -0.437500  0.062500    576.000000
 -0.187500 -0.437500  0.062500    576.000000
 -0.312500 -0.312500  0.062500    288.000000
 -0.187500 -0.312500  0.062500    576.000000
 -0.187500 -0.187500  0.062500    288.000000
  0.187500  0.187500  0.187500     96.000000
  0.312500  0.187500  0.187500    288.000000
  0.437500  0.187500  0.187500    288.000000
 -0.437500  0.187500  0.187500    288.000000
 -0.312500  0.187500  0.187500    288.000000
 -0.187500  0.187500  0.187500    288.000000
  0.312500  0.312500  0.187500    288.000000
  0.437500  0.312500  0.187500    576.000000
 -0.437500  0.312500  0.187500    576.000000
 -0.312500  0.312500  0.187500    576.000000
 -0.187500  0.312500  0.187500    576.000000
  0.437500  0.437500  0.187500    288.000000
 -0.437500  0.437500  0.187500    576.000000
 -0.312500  0.437500  0.187500    576.000000
 -0.187500  0.437500  0.187500    576.000000
 -0.437500 -0.437500  0.187500    288.000000
 -0.312500 -0.437500  0.187500    576.000000
 -0.312500 -0.312500  0.187500    288.000000
  0.312500  0.312500  0.312500     96.000000
  0.437500  0.312500  0.312500    288.000000
 -0.437500  0.312500  0.312500    288.000000
 -0.312500  0.312500  0.312500    288.000000
  0.437500  0.437500  0.312500    288.000000
 -0.437500  0.437500  0.312500    576.000000
 -0.312500  0.437500  0.312500    576.000000
 -0.437500 -0.437500  0.312500    288.000000
  0.437500  0.437500  0.437500     96.000000
 -0.437500  0.437500  0.437500    288.000000

 Following cartesian coordinates:
            Coordinates               Weight
  0.011510  0.011510  0.011510     96.000000
 -0.011510  0.034530  0.034530    288.000000
 -0.034530  0.057551  0.057551    288.000000
 -0.057551  0.080571  0.080571    288.000000
  0.103591 -0.080571 -0.080571    288.000000
  0.080571 -0.057551 -0.057551    288.000000
[...]

  length of vectors

 k-points in units of 2pi/SCALE and weight: Automatic kpoint scheme
   0.01151013  0.01151013  0.01151013       0.004
  -0.01151013  0.03453039  0.03453039       0.012
  -0.03453039  0.05755064  0.05755064       0.012
  -0.05755064  0.08057090  0.08057090       0.012
   0.10359116 -0.08057090 -0.08057090       0.012
   0.08057090 -0.05755064 -0.05755064       0.012
   0.05755064 -0.03453039 -0.03453039       0.012
   0.03453039 -0.01151013 -0.01151013       0.012
   0.01151013  0.01151013  0.05755064       0.012
  -0.01151013  0.03453039  0.08057090       0.023
  -0.03453039  0.05755064  0.10359116       0.023
   0.12661142 -0.10359116 -0.05755064       0.023
   0.10359116 -0.08057090 -0.03453039       0.023
   0.08057090 -0.05755064 -0.01151013       0.023
   0.05755064 -0.03453039  0.01151013       0.023
   0.01151013  0.01151013  0.10359116       0.012
  -0.01151013  0.03453039  0.12661142       0.023
   0.14963168 -0.12661142 -0.03453039       0.023
   0.12661142 -0.10359116 -0.01151013       0.023
   0.10359116 -0.08057090  0.01151013       0.023
   0.08057090 -0.05755064  0.03453039       0.023
   0.01151013  0.01151013  0.14963168       0.012
   0.17265193 -0.14963168 -0.01151013       0.023
   0.14963168 -0.12661142  0.01151013       0.023
   0.12661142 -0.10359116  0.03453039       0.023
   0.10359116 -0.08057090  0.05755064       0.023
   0.01151013  0.01151013 -0.17265193       0.012
  -0.01151013  0.03453039 -0.14963168       0.023
  -0.03453039  0.05755064 -0.12661142       0.023
   0.01151013  0.01151013 -0.12661142       0.012
  -0.01151013  0.03453039 -0.10359116       0.023
   0.01151013  0.01151013 -0.08057090       0.012
   0.03453039  0.03453039  0.03453039       0.004
   0.01151013  0.05755064  0.05755064       0.012
  -0.01151013  0.08057090  0.08057090       0.012
   0.14963168 -0.08057090 -0.08057090       0.012
   0.12661142 -0.05755064 -0.05755064       0.012
   0.10359116 -0.03453039 -0.03453039       0.012
   0.03453039  0.03453039  0.08057090       0.012
   0.01151013  0.05755064  0.10359116       0.023
   0.17265193 -0.10359116 -0.05755064       0.023
   0.14963168 -0.08057090 -0.03453039       0.023
   0.12661142 -0.05755064 -0.01151013       0.023
   0.03453039  0.03453039  0.12661142       0.012
   0.19567219 -0.12661142 -0.03453039       0.023
   0.17265193 -0.10359116 -0.01151013       0.023
   0.14963168 -0.08057090  0.01151013       0.023
   0.03453039  0.03453039 -0.19567219       0.012
   0.01151013  0.05755064 -0.17265193       0.023
   0.03453039  0.03453039 -0.14963168       0.012
   0.05755064  0.05755064  0.05755064       0.004
   0.03453039  0.08057090  0.08057090       0.012
   0.19567219 -0.08057090 -0.08057090       0.012
   0.17265193 -0.05755064 -0.05755064       0.012
   0.05755064  0.05755064  0.10359116       0.012
   0.21869245 -0.10359116 -0.05755064       0.023
   0.19567219 -0.08057090 -0.03453039       0.023
   0.05755064  0.05755064 -0.21869245       0.012
   0.08057090  0.08057090  0.08057090       0.004
   0.24171271 -0.08057090 -0.08057090       0.012

 k-points in reciprocal lattice and weights: Automatic kpoint scheme
   0.06250000  0.06250000  0.06250000       0.004
   0.18750000  0.06250000  0.06250000       0.012
   0.31250000  0.06250000  0.06250000       0.012
   0.43750000  0.06250000  0.06250000       0.012
  -0.43750000  0.06250000  0.06250000       0.012
  -0.31250000  0.06250000  0.06250000       0.012
  -0.18750000  0.06250000  0.06250000       0.012
  -0.06250000  0.06250000  0.06250000       0.012
   0.18750000  0.18750000  0.06250000       0.012
   0.31250000  0.18750000  0.06250000       0.023
   0.43750000  0.18750000  0.06250000       0.023
  -0.43750000  0.18750000  0.06250000       0.023
  -0.31250000  0.18750000  0.06250000       0.023
  -0.18750000  0.18750000  0.06250000       0.023
  -0.06250000  0.18750000  0.06250000       0.023
   0.31250000  0.31250000  0.06250000       0.012
   0.43750000  0.31250000  0.06250000       0.023
  -0.43750000  0.31250000  0.06250000       0.023
  -0.31250000  0.31250000  0.06250000       0.023
  -0.18750000  0.31250000  0.06250000       0.023
  -0.06250000  0.31250000  0.06250000       0.023
   0.43750000  0.43750000  0.06250000       0.012
  -0.43750000  0.43750000  0.06250000       0.023
  -0.31250000  0.43750000  0.06250000       0.023
  -0.18750000  0.43750000  0.06250000       0.023
  -0.06250000  0.43750000  0.06250000       0.023
  -0.43750000 -0.43750000  0.06250000       0.012
  -0.31250000 -0.43750000  0.06250000       0.023
  -0.18750000 -0.43750000  0.06250000       0.023
  -0.31250000 -0.31250000  0.06250000       0.012
  -0.18750000 -0.31250000  0.06250000       0.023
  -0.18750000 -0.18750000  0.06250000       0.012
   0.18750000  0.18750000  0.18750000       0.004
   0.31250000  0.18750000  0.18750000       0.012
   0.43750000  0.18750000  0.18750000       0.012
  -0.43750000  0.18750000  0.18750000       0.012
  -0.31250000  0.18750000  0.18750000       0.012
  -0.18750000  0.18750000  0.18750000       0.012
   0.31250000  0.31250000  0.18750000       0.012
   0.43750000  0.31250000  0.18750000       0.023
  -0.43750000  0.31250000  0.18750000       0.023
  -0.31250000  0.31250000  0.18750000       0.023
  -0.18750000  0.31250000  0.18750000       0.023
   0.43750000  0.43750000  0.18750000       0.012
  -0.43750000  0.43750000  0.18750000       0.023
  -0.31250000  0.43750000  0.18750000       0.023
  -0.18750000  0.43750000  0.18750000       0.023
  -0.43750000 -0.43750000  0.18750000       0.012
  -0.31250000 -0.43750000  0.18750000       0.023
  -0.31250000 -0.31250000  0.18750000       0.012
   0.31250000  0.31250000  0.31250000       0.004
   0.43750000  0.31250000  0.31250000       0.012
  -0.43750000  0.31250000  0.31250000       0.012
  -0.31250000  0.31250000  0.31250000       0.012
   0.43750000  0.43750000  0.31250000       0.012
  -0.43750000  0.43750000  0.31250000       0.023
  -0.31250000  0.43750000  0.31250000       0.023
  -0.43750000 -0.43750000  0.31250000       0.012
   0.43750000  0.43750000  0.43750000       0.004
  -0.43750000  0.43750000  0.43750000       0.012

 position of ions in fractional coordinates (direct lattice)
   0.50000000  0.50000000  0.50000000
   0.75000000  0.75000000  0.75000000

 position of ions in cartesian coordinates  (Angst):
   2.71500000  2.71500000  2.71500000
   4.07250000  4.07250000  4.07250000

 k-point  1 :   0.0625 0.0625 0.0625  plane waves:     169
 k-point  2 :   0.1875 0.0625 0.0625  plane waves:     167
 k-point  3 :   0.3125 0.0625 0.0625  plane waves:     163
 k-point  4 :   0.4375 0.0625 0.0625  plane waves:     167
 k-point  5 :  -0.4375 0.0625 0.0625  plane waves:     166
 k-point  6 :  -0.3125 0.0625 0.0625  plane waves:     162
 k-point  7 :  -0.1875 0.0625 0.0625  plane waves:     165
 k-point  8 :  -0.0625 0.0625 0.0625  plane waves:     169
 k-point  9 :   0.1875 0.1875 0.0625  plane waves:     166
 k-point 10 :   0.3125 0.1875 0.0625  plane waves:     164
 k-point 11 :   0.4375 0.1875 0.0625  plane waves:     164
 k-point 12 :  -0.4375 0.1875 0.0625  plane waves:     167
 k-point 13 :  -0.3125 0.1875 0.0625  plane waves:     164
 k-point 14 :  -0.1875 0.1875 0.0625  plane waves:     164
 k-point 15 :  -0.0625 0.1875 0.0625  plane waves:     163
 k-point 16 :   0.3125 0.3125 0.0625  plane waves:     167
 k-point 17 :   0.4375 0.3125 0.0625  plane waves:     168
 k-point 18 :  -0.4375 0.3125 0.0625  plane waves:     168
 k-point 19 :  -0.3125 0.3125 0.0625  plane waves:     170
 k-point 20 :  -0.1875 0.3125 0.0625  plane waves:     166
 k-point 21 :  -0.0625 0.3125 0.0625  plane waves:     163
 k-point 22 :   0.4375 0.4375 0.0625  plane waves:     166
 k-point 23 :  -0.4375 0.4375 0.0625  plane waves:     170
 k-point 24 :  -0.3125 0.4375 0.0625  plane waves:     173
 k-point 25 :  -0.1875 0.4375 0.0625  plane waves:     169
 k-point 26 :  -0.0625 0.4375 0.0625  plane waves:     166
 k-point 27 :  -0.4375-0.4375 0.0625  plane waves:     172
 k-point 28 :  -0.3125-0.4375 0.0625  plane waves:     170
 k-point 29 :  -0.1875-0.4375 0.0625  plane waves:     168
 k-point 30 :  -0.3125-0.3125 0.0625  plane waves:     168
 k-point 31 :  -0.1875-0.3125 0.0625  plane waves:     165
 k-point 32 :  -0.1875-0.1875 0.0625  plane waves:     166
 k-point 33 :   0.1875 0.1875 0.1875  plane waves:     168
 k-point 34 :   0.3125 0.1875 0.1875  plane waves:     162
 k-point 35 :   0.4375 0.1875 0.1875  plane waves:     166
 k-point 36 :  -0.4375 0.1875 0.1875  plane waves:     166
 k-point 37 :  -0.3125 0.1875 0.1875  plane waves:     168
 k-point 38 :  -0.1875 0.1875 0.1875  plane waves:     166
 k-point 39 :   0.3125 0.3125 0.1875  plane waves:     163
 k-point 40 :   0.4375 0.3125 0.1875  plane waves:     165
 k-point 41 :  -0.4375 0.3125 0.1875  plane waves:     167
 k-point 42 :  -0.3125 0.3125 0.1875  plane waves:     169
 k-point 43 :  -0.1875 0.3125 0.1875  plane waves:     167
 k-point 44 :   0.4375 0.4375 0.1875  plane waves:     165
 k-point 45 :  -0.4375 0.4375 0.1875  plane waves:     168
 k-point 46 :  -0.3125 0.4375 0.1875  plane waves:     167
 k-point 47 :  -0.1875 0.4375 0.1875  plane waves:     167
 k-point 48 :  -0.4375-0.4375 0.1875  plane waves:     172
 k-point 49 :  -0.3125-0.4375 0.1875  plane waves:     168
 k-point 50 :  -0.3125-0.3125 0.1875  plane waves:     170
 k-point 51 :   0.3125 0.3125 0.3125  plane waves:     162
 k-point 52 :   0.4375 0.3125 0.3125  plane waves:     165
 k-point 53 :  -0.4375 0.3125 0.3125  plane waves:     170
 k-point 54 :  -0.3125 0.3125 0.3125  plane waves:     172
 k-point 55 :   0.4375 0.4375 0.3125  plane waves:     167
 k-point 56 :  -0.4375 0.4375 0.3125  plane waves:     169
 k-point 57 :  -0.3125 0.4375 0.3125  plane waves:     171
 k-point 58 :  -0.4375-0.4375 0.3125  plane waves:     174
 k-point 59 :   0.4375 0.4375 0.4375  plane waves:     162
 k-point 60 :  -0.4375 0.4375 0.4375  plane waves:     166

 maximum and minimum number of plane-waves per node :       174      162

 maximum number of plane-waves:       174
 maximum index in each direction:
   IXMAX=    4   IYMAX=    4   IZMAX=    3
   IXMIN=   -4   IYMIN=   -4   IZMIN=   -4

 serial   3D FFT for wavefunctions
 parallel 3D FFT for charge:
    minimum data exchange during FFTs selected (reduces bandwidth)

 Broyden mixing: mesh for mixing (old mesh)
   NGX =  7   NGY =  7   NGZ =  7
  (NGX  = 24   NGY  = 24   NGZ  = 24)
  gives a total of    343 points

 charge density for first step will be calculated from the start-wavefunctions

 Maximum index for augmentation-charges          204 (set IRDMAX)

 initial charge from wavefunction
 First call to EWALD:  gamma=   0.518
 Maximum number of real-space cells 3x 3x 3
 Maximum number of reciprocal cells 3x 3x 3

--------------------------------------- Iteration      1(   1)  ---------------------------------------

 eigenvalue-minimisations  :   480
 total energy-change (2. order) :-0.1074509E+02  (-0.2474794E-05)
 number of electron       8.0000042 magnetization
 augmentation part       -0.4535055 magnetization

 Broyden mixing:
  rms(total) = 0.13524E-03    rms(broyden)= 0.13457E-03
  rms(prec ) = 0.35750E-03
  weight for this iteration     100.00

 Free energy of the ion-electron system (eV)
  alpha Z        PSCENC =         3.36414203
  Ewald energy   TEWEN  =      -228.56352493
  -Hartree energ DENC   =       -14.88255432
  -exchange      EXHF   =         0.00000000
  -V(xc)+E(xc)   XCENC  =       -17.92429154
  PAW double counting   =        76.67887872      -41.73057795
  entropy T*S    EENTRO =        -0.00003568
  eigenvalues    EBANDS =         6.22103715
  atomic energy  EATOM  =       206.09183643
  Solvation  Ediel_sol  =         0.00000000
  free energy    TOTEN  =       -10.74509010 eV

  energy without entropy =      -10.74505442  energy(sigma->0) =      -10.74507226

--------------------------------------- Iteration      1(   2)  ---------------------------------------

 eigenvalue-minimisations  :   480
 total energy-change (2. order) :-0.1775120E-06  (-0.7754280E-07)
 number of electron       8.0000042 magnetization
 augmentation part       -0.4535055 magnetization

 Free energy of the ion-electron system (eV)
  alpha Z        PSCENC =         3.36414203
  Ewald energy   TEWEN  =      -228.56352493
  -Hartree energ DENC   =       -14.88245376
  -exchange      EXHF   =         0.00000000
  -V(xc)+E(xc)   XCENC  =       -17.92427323
  PAW double counting   =        76.67761002      -41.72925817
  entropy T*S    EENTRO =        -0.00003564
  eigenvalues    EBANDS =         6.22086697
  atomic energy  EATOM  =       206.09183643
  Solvation  Ediel_sol  =         0.00000000
  free energy    TOTEN  =       -10.74509028 eV

  energy without entropy =      -10.74505464  energy(sigma->0) =      -10.74507246

 average (electrostatic) potential at core
  the test charge radii are     0.9892
  (the norm of the test charge is              1.0000)
       1 -83.2630       2 -83.2630

 E-fermi :   6.1919     XC(G=0):  -9.4139     alpha+bet :-11.9845

 k-point     1 :       0.0625    0.0625    0.0625
  band No.  band energies     occupation
      1      -6.0837      2.00000
      2       5.3394      2.00000
      3       5.7905      1.99547
      4       5.7905      1.99547
      5       8.5158      0.00000
      6       8.5808      0.00000
      7       8.5808      0.00000
      8       9.5868      0.00000

[...]

 k-point    60 :      -0.4375    0.4375    0.4375
  band No.  band energies     occupation
      1      -3.6428      2.00000
      2      -1.0132      2.00000
      3       3.4403      2.00000
      4       4.4087      2.00000
      5       8.1413      0.00000
      6       9.4571      0.00000
      7       9.9111      0.00000
      8      14.1099      0.00000

 soft charge-density along one line, spin component           1
         0         1         2         3         4         5         6         7         8         9
 total charge-density along one line

------------------------ aborting loop because EDIFF is reached ----------------------------------------

  FORCE on cell =-STRESS in cart. coord.  units (eV):
  Direction    XX          YY          ZZ          XY          YZ          ZX
  Alpha Z     3.36414     3.36414     3.36414
  Ewald     -76.18788   -76.18788   -76.18788    -0.00000    -0.00000     0.00000
  Hartree     4.96083     4.96083     4.96083     0.00000     0.00000     0.00000
  E(xc)     -25.39019   -25.39019   -25.39019    -0.00017    -0.00017    -0.00017
  Local     -29.42101   -29.42101   -29.42100     0.00023     0.00023     0.00023
  n-local    78.15096    80.62729    75.98011     1.04729    -1.13251     0.04794
  augment   -11.52119   -11.52119   -11.52119    -0.00017    -0.00017    -0.00017
  Kinetic    57.95726    55.78374    55.53751     0.79240    -0.88695     0.04589
  Fock        0.00000     0.00000     0.00000     0.00000     0.00000     0.00000
  Total       0.48367     0.48367     0.48367     0.00000     0.00000    -0.00000
  in kB      19.36050    19.36050    19.36050     0.00000     0.00000    -0.00000

 VOLUME and BASIS-vectors are now :
  energy-cutoff  :      150.00
  volume of cell :       40.03
      direct lattice vectors                 reciprocal lattice vectors
     0.000000000  2.715000000  2.715000000    -0.184162063  0.184162063  0.184162063
     2.715000000  0.000000000  2.715000000     0.184162063 -0.184162063  0.184162063
     2.715000000  2.715000000  0.000000000     0.184162063  0.184162063 -0.184162063

  length of vectors
     3.839589822  3.839589822  3.839589822     0.318978049  0.318978049  0.318978049

 FORCES acting on ions
    electron-ion (+dipol)            ewald-force                    non-local-force                 convergence-correction
   0.663E-05 0.663E-05 0.636E-05   -.476E-15 -.149E-14 0.391E-14   0.113E-16 0.781E-17 0.248E-17   0.685E-07 0.685E-07 0.685E-07
   -.663E-05 -.663E-05 -.636E-05   0.623E-15 0.106E-14 -.375E-14   -.181E-16 -.768E-17 -.206E-17   -.685E-07 -.685E-07 -.685E-07
   -.109E-12 -.339E-13 -.333E-13   0.147E-15 -.426E-15 0.164E-15   -.680E-17 0.134E-18 0.420E-18   -.262E-14 -.196E-14 0.341E-15

 POSITION                                       TOTAL-FORCE (eV/Angst)
      2.71500      2.71500      2.71500         0.000000      0.000000      0.000000
      4.07250      4.07250      4.07250        -0.000000     -0.000000     -0.000000
    total drift:                               -0.000000     -0.000000     -0.000000

  FREE ENERGIE OF THE ION-ELECTRON SYSTEM (eV)
  free  energy   TOTEN  =       -10.74509028 eV

  energy  without entropy=      -10.74505464  energy(sigma->0) =      -10.74507246

 reached required accuracy - stopping structural energy minimisation
 writing wavefunctions