 vasp.5.4.4.18Apr17-6-g9f103f2a35 (build Dec 09 2018 21:25:21) complex

 executed on IFC18.0.1.163_CrayMP date 2019.03.19  13:27:03

 INCAR:
 POTCAR:   PAW_PBE Si 05Jan2001

 POTCAR:   PAW_PBE Si 05Jan2001
   VRHFIN =Si: s2p2

   TITEL  = PAW_PBE Si 05Jan2001
   POMASS =   28.085; ZVAL   =    4.000    mass and valenz
   ENMAX  =  245.345; ENMIN  =  184.009 eV
   QCUT   =   -4.246; QGAM   =    8.493    optimization parameters

   Description
     l     E      TYP  RCUT    TYP  RCUT
     0   .000     23  1.900
     0   .000     23  1.900
     1   .000     23  1.900
     1   .000     23  1.900
     2   .000      7  1.900

 PAW_PBE Si 05Jan2001                   :

 POSCAR: Si2
  positions in direct lattice
 exchange correlation table for  LEXCH =        8
   RHO(1)=    0.500       N(1)  =     2000
   RHO(2)=  100.500       N(2)  =     4000

 ion  position               nearest neighbor table
   1  0.500  0.500  0.500-   2 2.35   2 2.35   2 2.35   2 2.35
   2  0.750  0.750  0.750-   1 2.35   1 2.35   1 2.35   1 2.35

  LATTYP: Found a face centered cubic cell.
 ALAT       =     5.4300000000

  Lattice vectors:

 A1 = (   0.0000000000,   2.7150000000,   2.7150000000)
 A2 = (   2.7150000000,   0.0000000000,   2.7150000000)
 A3 = (   2.7150000000,   2.7150000000,   0.0000000000)

Analysis of symmetry for initial positions (statically):
 Subroutine PRICEL returns:
 Original cell was already a primitive cell.

 Routine SETGRP: Setting up the symmetry group for a
 face centered cubic supercell.

 Subroutine GETGRP returns: Found 48 space group operations
 (whereof 24 operations were pure point group operations)
 out of a pool of 48 trial point group operations.

The static configuration has the point symmetry T_d .
 The point group associated with its full space group is O_h .

Analysis of symmetry for dynamics (positions and initial velocities):
 Subroutine PRICEL returns:
 Original cell was already a primitive cell.

 Routine SETGRP: Setting up the symmetry group for a
 face centered cubic supercell.

 Subroutine GETGRP returns: Found 48 space group operations
 (whereof 24 operations were pure point group operations)
 out of a pool of 48 trial point group operations.

The dynamic configuration has the point symmetry T_d .
 The point group associated with its full space group is O_h .

 Subroutine INISYM returns: Found 48 space group operations
 (whereof 24 operations are pure point group operations),
 and found     1 'primitive' translations

 KPOINTS: Automatic kpoint scheme

Automatic generation of k-mesh.
Space group operators:
 irot       det(A)        alpha          n_x          n_y          n_z        tau_x        tau_y        tau_z
    1     1.000000     0.000001     1.000000     0.000000     0.000000     0.000000     0.000000     0.000000
    2     1.000000   120.000000    -0.577350    -0.577350    -0.577350     0.000000     0.000000     0.000000
    3     1.000000   120.000000     0.577350     0.577350     0.577350     0.000000     0.000000     0.000000
    4    -1.000000    90.000000    -0.000000    -0.000000    -1.000000     0.000000     0.000000     0.000000
    5    -1.000000   180.000000    -0.000000     0.707107     0.707107     0.000000     0.000000     0.000000
    6    -1.000000    90.000000    -0.000000     1.000000    -0.000000     0.000000     0.000000     0.000000
    7     1.000000   180.000000     0.000000     0.000000    -1.000000     0.000000     0.000000     0.000000
    8     1.000000   120.000000    -0.577350     0.577350     0.577350     0.000000     0.000000     0.000000
    9     1.000000   120.000000    -0.577350     0.577350    -0.577350     0.000000     0.000000     0.000000
   10    -1.000000    90.000000     0.000000     0.000000     1.000000     0.000000     0.000000     0.000000
   11    -1.000000    90.000000    -1.000000     0.000000    -0.000000     0.000000     0.000000     0.000000
   12    -1.000000   180.000000     0.707107     0.000000     0.707107     0.000000     0.000000     0.000000
   13     1.000000   120.000000     0.577350    -0.577350     0.577350     0.000000     0.000000     0.000000
   14     1.000000   120.000000    -0.577350    -0.577350     0.577350     0.000000     0.000000     0.000000
   15     1.000000   180.000000     1.000000     0.000000     0.000000     0.000000     0.000000     0.000000
   16    -1.000000    90.000000     0.000000    -1.000000     0.000000     0.000000     0.000000     0.000000
   17    -1.000000   180.000000     0.707107     0.707107    -0.000000     0.000000     0.000000     0.000000
   18    -1.000000    90.000000     1.000000     0.000000     0.000000     0.000000     0.000000     0.000000
   19     1.000000   120.000000     0.577350    -0.577350    -0.577350     0.000000     0.000000     0.000000
   20     1.000000   180.000000     0.000000    -1.000000     0.000000     0.000000     0.000000     0.000000
   21     1.000000   120.000000     0.577350     0.577350    -0.577350     0.000000     0.000000     0.000000
   22    -1.000000   180.000000    -0.000000    -0.707107     0.707107     0.000000     0.000000     0.000000
   23    -1.000000   180.000000     0.707107    -0.707107    -0.000000     0.000000     0.000000     0.000000
   24    -1.000000   180.000000    -0.707107     0.000000     0.707107     0.000000     0.000000     0.000000
   25    -1.000000     0.000001     1.000000     0.000000     0.000000     0.250000     0.250000     0.250000
   26    -1.000000   120.000000    -0.577350    -0.577350    -0.577350     0.250000     0.250000     0.250000
   27    -1.000000   120.000000     0.577350     0.577350     0.577350     0.250000     0.250000     0.250000
   28     1.000000    90.000000    -0.000000    -0.000000    -1.000000     0.250000     0.250000     0.250000
   29     1.000000   180.000000    -0.000000     0.707107     0.707107     0.250000     0.250000     0.250000
   30     1.000000    90.000000    -0.000000     1.000000    -0.000000     0.250000     0.250000     0.250000
   31    -1.000000   180.000000     0.000000     0.000000    -1.000000     0.250000     0.250000     0.250000
   32    -1.000000   120.000000    -0.577350     0.577350     0.577350     0.250000     0.250000     0.250000
   33    -1.000000   120.000000    -0.577350     0.577350    -0.577350     0.250000     0.250000     0.250000
   34     1.000000    90.000000     0.000000     0.000000     1.000000     0.250000     0.250000     0.250000
   35     1.000000    90.000000    -1.000000     0.000000    -0.000000     0.250000     0.250000     0.250000
   36     1.000000   180.000000     0.707107     0.000000     0.707107     0.250000     0.250000     0.250000
   37    -1.000000   120.000000     0.577350    -0.577350     0.577350     0.250000     0.250000     0.250000
   38    -1.000000   120.000000    -0.577350    -0.577350     0.577350     0.250000     0.250000     0.250000
   39    -1.000000   180.000000     1.000000     0.000000     0.000000     0.250000     0.250000     0.250000
   40     1.000000    90.000000     0.000000    -1.000000     0.000000     0.250000     0.250000     0.250000
   41     1.000000   180.000000     0.707107     0.707107    -0.000000     0.250000     0.250000     0.250000
   42     1.000000    90.000000     1.000000     0.000000     0.000000     0.250000     0.250000     0.250000
   43    -1.000000   120.000000     0.577350    -0.577350    -0.577350     0.250000     0.250000     0.250000
   44    -1.000000   180.000000     0.000000    -1.000000     0.000000     0.250000     0.250000     0.250000
   45    -1.000000   120.000000     0.577350     0.577350    -0.577350     0.250000     0.250000     0.250000
   46     1.000000   180.000000    -0.000000    -0.707107     0.707107     0.250000     0.250000     0.250000
   47     1.000000   180.000000     0.707107    -0.707107    -0.000000     0.250000     0.250000     0.250000
   48     1.000000   180.000000    -0.707107     0.000000     0.707107     0.250000     0.250000     0.250000

 Subroutine IBZKPT returns following result:

 Found     35 irreducible k-points:

 Following reciprocal coordinates:
            Coordinates               Weight
  0.000000  0.000000  0.000000      1.000000
  0.111111  0.000000  0.000000      8.000000
  0.222222 -0.000000  0.000000      8.000000
  0.333333  0.000000  0.000000      8.000000
  0.444444 -0.000000  0.000000      8.000000
  0.111111  0.111111  0.000000      6.000000
  0.222222  0.111111  0.000000     24.000000
  0.333333  0.111111  0.000000     24.000000
  0.444444  0.111111  0.000000     24.000000
 -0.444444  0.111111  0.000000     24.000000
 -0.333333  0.111111 -0.000000     24.000000
 -0.222222  0.111111  0.000000     24.000000
 -0.111111  0.111111 -0.000000     12.000000
  0.222222  0.222222  0.000000      6.000000
  0.333333  0.222222  0.000000     24.000000
  0.444444  0.222222  0.000000     24.000000
 -0.444444  0.222222  0.000000     24.000000
 -0.333333  0.222222  0.000000     24.000000
 -0.222222  0.222222 -0.000000     12.000000
  0.333333  0.333333  0.000000      6.000000
  0.444444  0.333333  0.000000     24.000000
 -0.444444  0.333333 -0.000000     24.000000
 -0.333333  0.333333  0.000000     12.000000
  0.444444  0.444444  0.000000      6.000000
 -0.444444  0.444444 -0.000000     12.000000
  0.333333  0.222222  0.111111     24.000000
  0.444444  0.222222  0.111111     48.000000
 -0.444444  0.222222  0.111111     48.000000
  0.444444  0.333333  0.111111     24.000000
 -0.444444  0.333333  0.111111     48.000000
 -0.333333  0.333333  0.111111     48.000000
 -0.222222  0.333333  0.111111     24.000000
 -0.444444  0.444444  0.111111     24.000000
 -0.333333  0.444444  0.111111     24.000000
 -0.333333  0.444444  0.222222     24.000000

 Following cartesian coordinates:
            Coordinates               Weight
  0.000000  0.000000  0.000000      1.000000
 -0.020462  0.020462  0.020462      8.000000
 -0.040925  0.040925  0.040925      8.000000
 -0.061387  0.061387  0.061387      8.000000
 -0.081850  0.081850  0.081850      8.000000
  0.000000  0.000000  0.040925      6.000000
 -0.020462  0.020462  0.061387     24.000000
 -0.040925  0.040925  0.081850     24.000000
 -0.061387  0.061387  0.102312     24.000000
  0.102312 -0.102312 -0.061387     24.000000
  0.081850 -0.081850 -0.040925     24.000000
  0.061387 -0.061387 -0.020462     24.000000
  0.040925 -0.040925  0.000000     12.000000
  0.000000 -0.000000  0.081850      6.000000
 -0.020462  0.020462  0.102312     24.000000
 -0.040925  0.040925  0.122775     24.000000
  0.122775 -0.122775 -0.040925     24.000000
  0.102312 -0.102312 -0.020462     24.000000
  0.081850 -0.081850  0.000000     12.000000
  0.000000  0.000000  0.122775      6.000000
 -0.020462  0.020462  0.143237     24.000000
  0.143237 -0.143237 -0.020462     24.000000
  0.122775 -0.122775  0.000000     12.000000
  0.000000 -0.000000  0.163700      6.000000
  0.163700 -0.163700  0.000000     12.000000
  0.000000  0.040925  0.081850     24.000000
 -0.020462  0.061387  0.102312     48.000000
  0.143237 -0.102312 -0.061387     48.000000
 -0.000000  0.040925  0.122775     24.000000
  0.163700 -0.122775 -0.040925     48.000000
  0.143237 -0.102312 -0.020462     48.000000
[...]
   DEPER  =   0.30     relativ break condition

   TIME   =   0.40     timestep for ELM

  volume/ion in A,a.u.               =      20.01       135.05
  Fermi-wavevector in a.u.,A,eV,Ry     =   0.957176  1.808800 12.465458  0.916185
  Thomas-Fermi vector in A             =   2.086170

 Write flags
   LWAVE        =      T    write WAVECAR
   LDOWNSAMPLE  =      F    k-point downsampling of WAVECAR
   LCHARG       =      T    write CHGCAR
   LVTOT        =      F    write LOCPOT, total local potential
   LVHAR        =      F    write LOCPOT, Hartree potential only
   LELF         =      F    write electronic localiz. function (ELF)
   LORBIT       =      0    0 simple, 1 ext, 2 COOP (PROOUT), +10 PAW based schemes

 Dipole corrections
   LMONO  =      F    monopole corrections only (constant potential shift)
   LDIPOL =      F    correct potential (dipole corrections)
   IDIPOL =      0    1-x, 2-y, 3-z, 4-all directions
   EPSILON=  1.0000000 bulk dielectric constant

 Exchange correlation treatment:
   GGA     =    --    GGA type
   VOSKOWN=      0    Vosko Wilk Nusair interpolation
   LHFCALC =     F    Hartree Fock is set to
   LHFONE  =     F    Hartree Fock one center treatment
   AEXX    =    0.0000 exact exchange contribution

 Linear response parameters
   LEPSILON=     F    determine dielectric tensor
   LRPA    =     F    only Hartree local field effects (RPA)
   LNABLA  =     F    use nabla operator in PAW spheres
   LVEL    =     F    velocity operator in full k-point grid
   LINTERFAST=   F  fast interpolation
   KINTER  =     0    interpolate to denser k-point grid
   CSHIFT  =0.1000    complex shift for real part using Kramers Kronig
   OMEGAMAX=  -1.0    maximum frequency
   DEG_THRESHOLD= 0.2000000E-02 threshold for treating states as degnerate
   RTIME   =   -0.100 relaxation time in fs
  (WPLASMAI=    0.000 imaginary part of plasma frequency in eV, 0.658/RTIME)
   DFIELD  = 0.0000000 0.0000000 0.0000000 field for delta impulse in time

 Orbital magnetization related:
   ORBITALMAG=     F  switch on orbital magnetization
   LCHIMAG   =     F  perturbation theory with respect to B field
   DQ        =  0.001000  dq finite difference perturbation B field
   LLRAUG    =     F  two centre corrections for induced B field

 conjugate gradient relaxation of ions
 charge density and potential will be updated during run
 non-spin polarized calculation
 Variant of blocked Davidson
 Davidson routine will perform the subspace rotation
 perform sub-space diagonalisation
    after iterative eigenvector-optimisation
 modified Broyden-mixing scheme, WC =      100.0
 initial mixing is a Kerker type mixing with AMIX =  0.4000 and BMIX =      1.0000
 Hartree-type preconditioning will be used
 using additional bands            4
 reciprocal scheme for non local part
 use partial core corrections
 calculate Harris-corrections to forces
   (improved forces if not selfconsistent)
 use gradient corrections
 use of overlap-Matrix (Vanderbilt PP)
 Gauss-broadening in eV      SIGMA  =   0.20

  energy-cutoff  :      150.00
  volume of cell :       40.03
      direct lattice vectors                 reciprocal lattice vectors
     0.000000000  2.715000000  2.715000000    -0.184162063  0.184162063  0.184162063
     2.715000000  0.000000000  2.715000000     0.184162063 -0.184162063  0.184162063
     2.715000000  2.715000000  0.000000000     0.184162063  0.184162063 -0.184162063

  length of vectors
     3.839589822  3.839589822  3.839589822     0.318978049  0.318978049  0.318978049

 old parameters found on file WAVECAR:
  energy-cutoff  :      150.00
  volume of cell :       40.03
      direct lattice vectors                 reciprocal lattice vectors
     0.000000000  2.715000000  2.715000000    -0.184162063  0.184162063  0.184162063
     2.715000000  0.000000000  2.715000000     0.184162063 -0.184162063  0.184162063
     2.715000000  2.715000000  0.000000000     0.184162063  0.184162063 -0.184162063

  length of vectors

 k-points in units of 2pi/SCALE and weight: Automatic kpoint scheme
   0.00000000  0.00000000  0.00000000       0.001
  -0.02046245  0.02046245  0.02046245       0.011
  -0.04092490  0.04092490  0.04092490       0.011
  -0.06138735  0.06138735  0.06138735       0.011
  -0.08184981  0.08184981  0.08184981       0.011
  -0.00000000  0.00000000  0.04092490       0.008
  -0.02046245  0.02046245  0.06138735       0.033
  -0.04092490  0.04092490  0.08184981       0.033
  -0.06138735  0.06138735  0.10231226       0.033
   0.10231226 -0.10231226 -0.06138735       0.033
   0.08184981 -0.08184981 -0.04092490       0.033
   0.06138735 -0.06138735 -0.02046245       0.033
   0.04092490 -0.04092490  0.00000000       0.016
   0.00000000 -0.00000000  0.08184981       0.008
  -0.02046245  0.02046245  0.10231226       0.033
  -0.04092490  0.04092490  0.12277471       0.033
   0.12277471 -0.12277471 -0.04092490       0.033
   0.10231226 -0.10231226 -0.02046245       0.033
   0.08184981 -0.08184981 -0.00000000       0.016
   0.00000000  0.00000000  0.12277471       0.008
  -0.02046245  0.02046245  0.14323716       0.033
   0.14323716 -0.14323716 -0.02046245       0.033
   0.12277471 -0.12277471 -0.00000000       0.016
   0.00000000 -0.00000000  0.16369961       0.008
   0.16369961 -0.16369961 -0.00000000       0.016
   0.00000000  0.04092490  0.08184981       0.033
  -0.02046245  0.06138735  0.10231226       0.066
   0.14323716 -0.10231226 -0.06138735       0.066
  -0.00000000  0.04092490  0.12277471       0.033
   0.16369961 -0.12277471 -0.04092490       0.066
   0.14323716 -0.10231226 -0.02046245       0.066
   0.12277471 -0.08184981 -0.00000000       0.033
   0.18416206 -0.14323716 -0.02046245       0.033
   0.16369961 -0.12277471 -0.00000000       0.033
   0.18416206 -0.10231226 -0.02046245       0.033

 k-points in reciprocal lattice and weights: Automatic kpoint scheme
   0.00000000  0.00000000  0.00000000       0.001
   0.11111111  0.00000000  0.00000000       0.011
   0.22222222 -0.00000000  0.00000000       0.011
   0.33333333  0.00000000  0.00000000       0.011
   0.44444444 -0.00000000  0.00000000       0.011
   0.11111111  0.11111111  0.00000000       0.008
   0.22222222  0.11111111  0.00000000       0.033
   0.33333333  0.11111111  0.00000000       0.033
   0.44444444  0.11111111  0.00000000       0.033
  -0.44444444  0.11111111  0.00000000       0.033
  -0.33333333  0.11111111 -0.00000000       0.033
  -0.22222222  0.11111111  0.00000000       0.033
  -0.11111111  0.11111111 -0.00000000       0.016
   0.22222222  0.22222222  0.00000000       0.008
   0.33333333  0.22222222  0.00000000       0.033
   0.44444444  0.22222222  0.00000000       0.033
  -0.44444444  0.22222222  0.00000000       0.033
  -0.33333333  0.22222222  0.00000000       0.033
  -0.22222222  0.22222222 -0.00000000       0.016
   0.33333333  0.33333333  0.00000000       0.008
   0.44444444  0.33333333  0.00000000       0.033
  -0.44444444  0.33333333 -0.00000000       0.033
  -0.33333333  0.33333333  0.00000000       0.016
   0.44444444  0.44444444  0.00000000       0.008
  -0.44444444  0.44444444 -0.00000000       0.016
   0.33333333  0.22222222  0.11111111       0.033
   0.44444444  0.22222222  0.11111111       0.066
  -0.44444444  0.22222222  0.11111111       0.066
   0.44444444  0.33333333  0.11111111       0.033
  -0.44444444  0.33333333  0.11111111       0.066
  -0.33333333  0.33333333  0.11111111       0.066
  -0.22222222  0.33333333  0.11111111       0.033
  -0.44444444  0.44444444  0.11111111       0.033
  -0.33333333  0.44444444  0.11111111       0.033
  -0.33333333  0.44444444  0.22222222       0.033

 position of ions in fractional coordinates (direct lattice)
   0.50000000  0.50000000  0.50000000
   0.75000000  0.75000000  0.75000000

 position of ions in cartesian coordinates  (Angst):
   2.71500000  2.71500000  2.71500000
   4.07250000  4.07250000  4.07250000

 k-point  1 :   0.0000 0.0000 0.0000  plane waves:     169
 k-point  2 :   0.1111 0.0000 0.0000  plane waves:     169
 k-point  3 :   0.2222-0.0000 0.0000  plane waves:     168
 k-point  4 :   0.3333 0.0000 0.0000  plane waves:     165
 k-point  5 :   0.4444-0.0000 0.0000  plane waves:     168
 k-point  6 :   0.1111 0.1111 0.0000  plane waves:     169
 k-point  7 :   0.2222 0.1111 0.0000  plane waves:     166
 k-point  8 :   0.3333 0.1111 0.0000  plane waves:     162
 k-point  9 :   0.4444 0.1111 0.0000  plane waves:     167
 k-point 10 :  -0.4444 0.1111 0.0000  plane waves:     166
 k-point 11 :  -0.3333 0.1111-0.0000  plane waves:     165
 k-point 12 :  -0.2222 0.1111 0.0000  plane waves:     161
 k-point 13 :  -0.1111 0.1111-0.0000  plane waves:     164
 k-point 14 :   0.2222 0.2222 0.0000  plane waves:     165
 k-point 15 :   0.3333 0.2222 0.0000  plane waves:     167
 k-point 16 :   0.4444 0.2222 0.0000  plane waves:     167
 k-point 17 :  -0.4444 0.2222 0.0000  plane waves:     174
 k-point 18 :  -0.3333 0.2222 0.0000  plane waves:     168
 k-point 19 :  -0.2222 0.2222-0.0000  plane waves:     166
 k-point 20 :   0.3333 0.3333 0.0000  plane waves:     170
 k-point 21 :   0.4444 0.3333 0.0000  plane waves:     168
 k-point 22 :  -0.4444 0.3333-0.0000  plane waves:     175
 k-point 23 :  -0.3333 0.3333 0.0000  plane waves:     172
 k-point 24 :   0.4444 0.4444 0.0000  plane waves:     162
 k-point 25 :  -0.4444 0.4444-0.0000  plane waves:     170
 k-point 26 :   0.3333 0.2222 0.1111  plane waves:     164
 k-point 27 :   0.4444 0.2222 0.1111  plane waves:     164
 k-point 28 :  -0.4444 0.2222 0.1111  plane waves:     167
 k-point 29 :   0.4444 0.3333 0.1111  plane waves:     172
 k-point 30 :  -0.4444 0.3333 0.1111  plane waves:     168
 k-point 31 :  -0.3333 0.3333 0.1111  plane waves:     171
 k-point 32 :  -0.2222 0.3333 0.1111  plane waves:     167
 k-point 33 :  -0.4444 0.4444 0.1111  plane waves:     171
 k-point 34 :  -0.3333 0.4444 0.1111  plane waves:     167
 k-point 35 :  -0.3333 0.4444 0.2222  plane waves:     163

 maximum and minimum number of plane-waves per node :       175      161

 maximum number of plane-waves:       175
 maximum index in each direction:
   IXMAX=    4   IYMAX=    3   IZMAX=    3
   IXMIN=   -4   IYMIN=   -4   IZMIN=   -3

 serial   3D FFT for wavefunctions
 parallel 3D FFT for charge:
    minimum data exchange during FFTs selected (reduces bandwidth)

 Broyden mixing: mesh for mixing (old mesh)
   NGX =  7   NGY =  7   NGZ =  7
  (NGX  = 24   NGY  = 24   NGZ  = 24)
  gives a total of    343 points

 charge density for first step will be calculated from the start-wavefunctions

 Maximum index for augmentation-charges          204 (set IRDMAX)

 initial charge from wavefunction
 First call to EWALD:  gamma=   0.518
 Maximum number of real-space cells 3x 3x 3
 Maximum number of reciprocal cells 3x 3x 3

--------------------------------------- Iteration      1(   1)  ---------------------------------------

 eigenvalue-minimisations  :   288
 total energy-change (2. order) :-0.1074375E+02  (-0.2563486E-05)
 number of electron       8.0000042 magnetization
 augmentation part       -0.4533795 magnetization

 Broyden mixing:
  rms(total) = 0.13657E-03    rms(broyden)= 0.13587E-03
  rms(prec ) = 0.36009E-03
  weight for this iteration     100.00

 Free energy of the ion-electron system (eV)
  alpha Z        PSCENC =         3.36414203
  Ewald energy   TEWEN  =      -228.56352493
  -Hartree energ DENC   =       -14.88821197
  -exchange      EXHF   =         0.00000000
  -V(xc)+E(xc)   XCENC  =       -17.92359669
  PAW double counting   =        76.67923171      -41.73105638
  entropy T*S    EENTRO =        -0.00013389
  eigenvalues    EBANDS =         6.22756141
  atomic energy  EATOM  =       206.09183643
  Solvation  Ediel_sol  =         0.00000000
  free energy    TOTEN  =       -10.74375227 eV

  energy without entropy =      -10.74361838  energy(sigma->0) =      -10.74368533

--------------------------------------- Iteration      1(   2)  ---------------------------------------

 eigenvalue-minimisations  :   280
 total energy-change (2. order) :-0.1422823E-06  (-0.8397055E-07)
 number of electron       8.0000042 magnetization
 augmentation part       -0.4533795 magnetization

 Free energy of the ion-electron system (eV)
  alpha Z        PSCENC =         3.36414203
  Ewald energy   TEWEN  =      -228.56352493
  -Hartree energ DENC   =       -14.88813922
  -exchange      EXHF   =         0.00000000
  -V(xc)+E(xc)   XCENC  =       -17.92357581
  PAW double counting   =        76.67803321      -41.72980826
  entropy T*S    EENTRO =        -0.00013377
  eigenvalues    EBANDS =         6.22741790
  atomic energy  EATOM  =       206.09183643
  Solvation  Ediel_sol  =         0.00000000
  free energy    TOTEN  =       -10.74375242 eV

  energy without entropy =      -10.74361865  energy(sigma->0) =      -10.74368553

 average (electrostatic) potential at core
  the test charge radii are     0.9892
  (the norm of the test charge is              1.0000)
       1 -83.2619       2 -83.2619

 E-fermi :   6.1645     XC(G=0):  -9.4134     alpha+bet :-11.9845

 k-point     1 :       0.0000    0.0000    0.0000
  band No.  band energies     occupation
      1      -6.1344      2.00000
      2       5.8774      1.95767
      3       5.8774      1.95767
      4       5.8777      1.95746
      5       8.4554      0.00000
      6       8.4554      0.00000
      7       8.4556      0.00000
      8       9.1985      0.00000

[...]

 k-point    35 :      -0.3333    0.4444    0.2222
  band No.  band energies     occupation
      1      -2.4138      2.00000
      2      -1.2518      2.00000
      3       1.7880      2.00000
      4       2.4325      2.00000
      5       9.7842      0.00000
      6       9.8864      0.00000
      7      10.5555      0.00000
      8      12.3271      0.00000

 soft charge-density along one line, spin component           1
         0         1         2         3         4         5         6         7         8         9
 total charge-density along one line

------------------------ aborting loop because EDIFF is reached ----------------------------------------

  FORCE on cell =-STRESS in cart. coord.  units (eV):
  Direction    XX          YY          ZZ          XY          YZ          ZX
  Alpha Z     3.36414     3.36414     3.36414
  Ewald     -76.18788   -76.18788   -76.18788    -0.00000    -0.00000     0.00000
  Hartree     4.96274     4.96274     4.96274     0.00000     0.00000     0.00000
  E(xc)     -25.39106   -25.39106   -25.39106    -0.00017    -0.00017    -0.00017
  Local     -29.42389   -29.42389   -29.42388     0.00023     0.00024     0.00024
  n-local    79.28679    80.50222    74.94243     2.21330    -1.23695     0.58789
  augment   -11.51801   -11.51801   -11.51801    -0.00017    -0.00017    -0.00017
  Kinetic    58.51672    55.95046    54.83352     3.54820    -0.68326     1.01042
  Fock        0.00000     0.00000     0.00000     0.00000     0.00000     0.00000
  Total       0.48344     0.48344     0.48344     0.00000     0.00000     0.00000
  in kB      19.35134    19.35134    19.35134     0.00000     0.00000     0.00000

 VOLUME and BASIS-vectors are now :
  energy-cutoff  :      150.00
  volume of cell :       40.03
      direct lattice vectors                 reciprocal lattice vectors
     0.000000000  2.715000000  2.715000000    -0.184162063  0.184162063  0.184162063
     2.715000000  0.000000000  2.715000000     0.184162063 -0.184162063  0.184162063
     2.715000000  2.715000000  0.000000000     0.184162063  0.184162063 -0.184162063

  length of vectors
     3.839589822  3.839589822  3.839589822     0.318978049  0.318978049  0.318978049

 FORCES acting on ions
    electron-ion (+dipol)            ewald-force                    non-local-force                 convergence-correction
   0.667E-05 0.667E-05 0.657E-05   -.476E-15 -.149E-14 0.391E-14   -.553E-16 -.622E-16 -.543E-16   0.714E-07 0.714E-07 0.714E-07
   -.667E-05 -.667E-05 -.657E-05   0.623E-15 0.106E-14 -.375E-14   0.393E-16 0.671E-16 0.491E-16   -.714E-07 -.714E-07 -.714E-07
   -.126E-12 -.632E-13 -.304E-13   0.147E-15 -.426E-15 0.164E-15   -.159E-16 0.489E-17 -.522E-17   0.398E-14 0.519E-14 -.758E-16

 POSITION                                       TOTAL-FORCE (eV/Angst)
      2.71500      2.71500      2.71500        -0.000000     -0.000000     -0.000000
      4.07250      4.07250      4.07250         0.000000      0.000000      0.000000
    total drift:                               -0.000000     -0.000000     -0.000000

  FREE ENERGIE OF THE ION-ELECTRON SYSTEM (eV)
  free  energy   TOTEN  =       -10.74375242 eV

  energy  without entropy=      -10.74361865  energy(sigma->0) =      -10.74368553

 reached required accuracy - stopping structural energy minimisation
 writing wavefunctions