 vasp.5.4.4.18Apr17-6-g9f103f2a35 (build Dec 09 2018 21:25:21) complex

 executed on IFC18.0.1.163_CrayMP date 2019.03.20  09:06:04

 INCAR:
 POTCAR:   PAW_PBE Si 05Jan2001

 POTCAR:   PAW_PBE Si 05Jan2001
   VRHFIN =Si: s2p2

   TITEL  = PAW_PBE Si 05Jan2001
   POMASS =   28.085; ZVAL   =    4.000    mass and valenz
   ENMAX  =  245.345; ENMIN  =  184.009 eV
   QCUT   =   -4.246; QGAM   =    8.493    optimization parameters

   Description
     l     E      TYP  RCUT    TYP  RCUT
     0   .000     23  1.900
     0   .000     23  1.900
     1   .000     23  1.900
     1   .000     23  1.900
     2   .000      7  1.900

 PAW_PBE Si 05Jan2001                   :

 POSCAR: Si2
  positions in direct lattice
 exchange correlation table for  LEXCH =        8
   RHO(1)=    0.500       N(1)  =     2000
   RHO(2)=  100.500       N(2)  =     4000

 ion  position               nearest neighbor table
   1  0.250  0.750  0.500-   2 2.53   2 2.53   2 2.53   2 2.53   2 3.11   2 3.11   2 3.11   2 3.11

   2  0.000  0.000  0.000-   1 2.53   1 2.53   1 2.53   1 2.53   1 3.11   1 3.11   1 3.11   1 3.11

  LATTYP: Found a body centered tetragonal cell.
 ALAT       =     4.9000000000
 C/A-ratio  =     0.5200000000

  Lattice vectors:

 A1 = (  -2.4500000000,   2.4500000000,   1.2740000000)
 A2 = (   2.4500000000,  -2.4500000000,   1.2740000000)
 A3 = (   2.4500000000,   2.4500000000,  -1.2740000000)

Analysis of symmetry for initial positions (statically):
 Subroutine PRICEL returns:
 Original cell was already a primitive cell.

 Routine SETGRP: Setting up the symmetry group for a
 body centered tetragonal supercell.

 Subroutine GETGRP returns: Found 16 space group operations
 (whereof  8 operations were pure point group operations)
 out of a pool of 16 trial point group operations.

The static configuration has the point symmetry D_2d.
 The point group associated with its full space group is D_4h.

Analysis of symmetry for dynamics (positions and initial velocities):
 Subroutine PRICEL returns:
 Original cell was already a primitive cell.

 Routine SETGRP: Setting up the symmetry group for a
 body centered tetragonal supercell.

 Subroutine GETGRP returns: Found 16 space group operations
 (whereof  8 operations were pure point group operations)
 out of a pool of 16 trial point group operations.

The dynamic configuration has the point symmetry D_2d.
 The point group associated with its full space group is D_4h.

 Subroutine INISYM returns: Found 16 space group operations
 (whereof  8 operations are pure point group operations),
 and found     1 'primitive' translations

 KPOINTS: Automatic kpoint scheme

Automatic generation of k-mesh.
Space group operators:
 irot       det(A)        alpha          n_x          n_y          n_z        tau_x        tau_y        tau_z
    1     1.000000     0.000000     1.000000     0.000000     0.000000     0.000000     0.000000     0.000000
    2    -1.000000    90.000000    -0.000000    -0.000000    -1.000000     0.000000     0.000000     0.000000
    3     1.000000   180.000000    -0.000000    -0.000000    -1.000000     0.000000     0.000000     0.000000
    4    -1.000000    90.000000    -0.000000     0.000000     1.000000     0.000000     0.000000     0.000000
    5    -1.000000   180.000000     0.000000    -1.000000     0.000000     0.000000     0.000000     0.000000
    6     1.000000   180.000000     0.707107     0.707107    -0.000000     0.000000     0.000000     0.000000
    7    -1.000000   180.000000     1.000000     0.000000     0.000000     0.000000     0.000000     0.000000
    8     1.000000   180.000000     0.707107    -0.707107     0.000000     0.000000     0.000000     0.000000
    9    -1.000000     0.000000     1.000000     0.000000     0.000000     0.250000     0.750000     0.500000
   10     1.000000    90.000000    -0.000000    -0.000000    -1.000000     0.250000     0.750000     0.500000
   11    -1.000000   180.000000    -0.000000    -0.000000    -1.000000     0.250000     0.750000     0.500000
   12     1.000000    90.000000    -0.000000     0.000000     1.000000     0.250000     0.750000     0.500000
   13     1.000000   180.000000     0.000000    -1.000000     0.000000     0.250000     0.750000     0.500000
   14    -1.000000   180.000000     0.707107     0.707107    -0.000000     0.250000     0.750000     0.500000
   15     1.000000   180.000000     1.000000     0.000000     0.000000     0.250000     0.750000     0.500000
   16    -1.000000   180.000000     0.707107    -0.707107     0.000000     0.250000     0.750000     0.500000

 Subroutine IBZKPT returns following result:

 Found    159 irreducible k-points:

 Following reciprocal coordinates:
            Coordinates               Weight
  0.041667  0.041667  0.041667    128.000000
  0.125000  0.041667  0.041667    256.000000
  0.208333  0.041667  0.041667    256.000000
  0.291667  0.041667  0.041667    256.000000
  0.375000  0.041667  0.041667    256.000000
  0.458333  0.041667  0.041667    128.000000
 -0.041667  0.041667  0.041667     64.000000
  0.125000  0.125000  0.041667    128.000000
  0.208333  0.125000  0.041667    256.000000
  0.291667  0.125000  0.041667    256.000000
  0.375000  0.125000  0.041667    256.000000
  0.458333  0.125000  0.041667    256.000000
 -0.458333  0.125000  0.041667    256.000000
 -0.375000  0.125000  0.041667    256.000000
 -0.291667  0.125000  0.041667    256.000000
 -0.208333  0.125000  0.041667    128.000000
 -0.125000  0.125000  0.041667    128.000000
 -0.041667  0.125000  0.041667    128.000000
  0.208333  0.208333  0.041667    128.000000
  0.291667  0.208333  0.041667    256.000000
  0.375000  0.208333  0.041667    256.000000
  0.458333  0.208333  0.041667    256.000000
 -0.458333  0.208333  0.041667    256.000000
 -0.375000  0.208333  0.041667    256.000000
 -0.291667  0.208333  0.041667    128.000000
 -0.208333  0.208333  0.041667    128.000000
 -0.125000  0.208333  0.041667    256.000000
 -0.041667  0.208333  0.041667    128.000000
  0.291667  0.291667  0.041667    128.000000
  0.375000  0.291667  0.041667    256.000000
  0.458333  0.291667  0.041667    256.000000
 -0.458333  0.291667  0.041667    256.000000
 -0.375000  0.291667  0.041667    128.000000
 -0.291667  0.291667  0.041667    128.000000
 -0.208333  0.291667  0.041667    256.000000
 -0.125000  0.291667  0.041667    256.000000
 -0.041667  0.291667  0.041667    128.000000
  0.375000  0.375000  0.041667    128.000000
  0.458333  0.375000  0.041667    256.000000
 -0.458333  0.375000  0.041667    128.000000
 -0.375000  0.375000  0.041667    128.000000
 -0.291667  0.375000  0.041667    256.000000
 -0.208333  0.375000  0.041667    256.000000
 -0.125000  0.375000  0.041667    256.000000
 -0.041667  0.375000  0.041667    128.000000
  0.458333  0.458333  0.041667     64.000000
 -0.458333  0.458333  0.041667    128.000000
 -0.375000  0.458333  0.041667    256.000000
 -0.291667  0.458333  0.041667    256.000000
 -0.208333  0.458333  0.041667    256.000000
 -0.125000  0.458333  0.041667    256.000000
 -0.041667  0.458333  0.041667    128.000000
 -0.458333 -0.458333  0.041667    128.000000
 -0.375000 -0.458333  0.041667    256.000000
 -0.291667 -0.458333  0.041667    256.000000
 -0.208333 -0.458333  0.041667    256.000000
 -0.125000 -0.458333  0.041667    256.000000
 -0.041667 -0.458333  0.041667    128.000000
 -0.375000 -0.375000  0.041667    128.000000
 -0.291667 -0.375000  0.041667    256.000000
[...]
 -0.291667  0.458333  0.291667    128.000000
 -0.458333 -0.458333  0.291667    128.000000
 -0.375000 -0.458333  0.291667    256.000000
 -0.291667 -0.458333  0.291667    128.000000
 -0.375000 -0.375000  0.291667    128.000000
 -0.291667 -0.375000  0.291667    128.000000
 -0.291667 -0.291667  0.291667     32.000000
 -0.375000  0.375000  0.375000     64.000000
 -0.458333  0.458333  0.375000    128.000000
 -0.375000  0.458333  0.375000    128.000000
 -0.458333 -0.458333  0.375000    128.000000
 -0.375000 -0.458333  0.375000    128.000000
 -0.375000 -0.375000  0.375000     32.000000
 -0.458333  0.458333  0.458333     64.000000
 -0.458333 -0.458333  0.458333     32.000000

 Following cartesian coordinates:
            Coordinates               Weight
  0.017007  0.017007  0.032705    128.000000
  0.017007  0.034014  0.065411    256.000000
  0.017007  0.051020  0.098116    256.000000
  0.017007  0.068027  0.130822    256.000000
  0.017007  0.085034  0.163527    256.000000
  0.017007  0.102041  0.196232    128.000000
  0.017007 -0.000000  0.000000     64.000000
  0.034014  0.034014  0.098116    128.000000
  0.034014  0.051020  0.130822    256.000000
  0.034014  0.068027  0.163527    256.000000
  0.034014  0.085034  0.196232    256.000000
  0.034014  0.102041  0.228938    256.000000
  0.034014 -0.085034 -0.130822    256.000000
  0.034014 -0.068027 -0.098116    256.000000
  0.034014 -0.051020 -0.065411    256.000000
  0.034014 -0.034014 -0.032705    128.000000
  0.034014 -0.017007  0.000000    128.000000
  0.034014  0.000000  0.032705    128.000000
  0.051020  0.051020  0.163527    128.000000
  0.051020  0.068027  0.196232    256.000000
  0.051020  0.085034  0.228938    256.000000
  0.051020  0.102041  0.261643    256.000000
  0.051020 -0.085034 -0.098116    256.000000
  0.051020 -0.068027 -0.065411    256.000000
  0.051020 -0.051020 -0.032705    128.000000
  0.051020 -0.034014 -0.000000    128.000000
  0.051020 -0.017007  0.032705    256.000000
  0.051020  0.000000  0.065411    128.000000
  0.068027  0.068027  0.228938    128.000000
  0.068027  0.085034  0.261643    256.000000
  0.068027  0.102041  0.294349    256.000000
  0.068027 -0.085034 -0.065411    256.000000
  0.068027 -0.068027 -0.032705    128.000000
  0.068027 -0.051020 -0.000000    128.000000
  0.068027 -0.034014  0.032705    256.000000
  0.068027 -0.017007  0.065411    256.000000
  0.068027  0.000000  0.098116    128.000000
  0.085034  0.085034  0.294349    128.000000
  0.085034  0.102041  0.327054    256.000000
  0.085034 -0.085034 -0.032705    128.000000
  0.085034 -0.068027  0.000000    128.000000
  0.085034 -0.051020  0.032705    256.000000
  0.085034 -0.034014  0.065411    256.000000
  0.085034 -0.017007  0.098116    256.000000
  0.085034  0.000000  0.130822    128.000000
  0.102041  0.102041  0.359759     64.000000
  0.102041 -0.085034 -0.000000    128.000000
  0.102041 -0.068027  0.032705    256.000000
  0.102041 -0.051020  0.065411    256.000000
  0.102041 -0.034014  0.098116    256.000000
  0.102041 -0.017007  0.130822    256.000000
  0.102041  0.000000  0.163527    128.000000
 -0.085034 -0.085034 -0.359759    128.000000
 -0.085034 -0.068027 -0.327054    256.000000
 -0.085034 -0.051020 -0.294349    256.000000
 -0.085034 -0.034014 -0.261643    256.000000
 -0.085034 -0.017007 -0.228938    256.000000
 -0.085034 -0.000000 -0.196232    128.000000
 -0.068027 -0.068027 -0.294349    128.000000
 -0.068027 -0.051020 -0.261643    256.000000
[...]
  0.153061  0.000000  0.065411    128.000000
 -0.034014 -0.034014 -0.359759    128.000000
 -0.034014 -0.017007 -0.327054    256.000000
 -0.034014  0.000000 -0.294349    128.000000
 -0.017007 -0.017007 -0.294349    128.000000
 -0.017007  0.000000 -0.261643    128.000000
[...]
 k-point 92 :   0.3750 0.3750 0.1250  plane waves:     128
 k-point 93 :  -0.3750 0.3750 0.1250  plane waves:     126
 k-point 94 :  -0.2917 0.3750 0.1250  plane waves:     130
 k-point 95 :  -0.2083 0.3750 0.1250  plane waves:     127
 k-point 96 :  -0.1250 0.3750 0.1250  plane waves:     128
 k-point 97 :  -0.4583 0.4583 0.1250  plane waves:     129
 k-point 98 :  -0.3750 0.4583 0.1250  plane waves:     131
 k-point 99 :  -0.2917 0.4583 0.1250  plane waves:     127
 k-point ** :  -0.2083 0.4583 0.1250  plane waves:     129
 k-point ** :  -0.1250 0.4583 0.1250  plane waves:     128
 k-point ** :  -0.4583-0.4583 0.1250  plane waves:     130
 k-point ** :  -0.3750-0.4583 0.1250  plane waves:     128
 k-point ** :  -0.2917-0.4583 0.1250  plane waves:     128
 k-point ** :  -0.2083-0.4583 0.1250  plane waves:     123
 k-point ** :  -0.1250-0.4583 0.1250  plane waves:     126
 k-point ** :  -0.3750-0.3750 0.1250  plane waves:     127
 k-point ** :  -0.2917-0.3750 0.1250  plane waves:     121
 k-point ** :  -0.2083-0.3750 0.1250  plane waves:     123
 k-point ** :  -0.1250-0.3750 0.1250  plane waves:     120
 k-point ** :  -0.2917-0.2917 0.1250  plane waves:     121
 k-point ** :  -0.2083-0.2917 0.1250  plane waves:     119
 k-point ** :  -0.1250-0.2917 0.1250  plane waves:     119
 k-point ** :  -0.2083-0.2083 0.1250  plane waves:     122
 k-point ** :  -0.1250-0.2083 0.1250  plane waves:     126
 k-point ** :  -0.1250-0.1250 0.1250  plane waves:     131
 k-point ** :   0.2083 0.2083 0.2083  plane waves:     126
 k-point ** :   0.2917 0.2083 0.2083  plane waves:     130
 k-point ** :  -0.2083 0.2083 0.2083  plane waves:     125
 k-point ** :   0.2917 0.2917 0.2083  plane waves:     130
 k-point ** :  -0.2917 0.2917 0.2083  plane waves:     126
 k-point ** :  -0.2083 0.2917 0.2083  plane waves:     128
 k-point ** :  -0.3750 0.3750 0.2083  plane waves:     129
 k-point ** :  -0.2917 0.3750 0.2083  plane waves:     129
 k-point ** :  -0.2083 0.3750 0.2083  plane waves:     129
 k-point ** :  -0.4583 0.4583 0.2083  plane waves:     128
 k-point ** :  -0.3750 0.4583 0.2083  plane waves:     129
 k-point ** :  -0.2917 0.4583 0.2083  plane waves:     131
 k-point ** :  -0.2083 0.4583 0.2083  plane waves:     128
 k-point ** :  -0.4583-0.4583 0.2083  plane waves:     128
 k-point ** :  -0.3750-0.4583 0.2083  plane waves:     131
 k-point ** :  -0.2917-0.4583 0.2083  plane waves:     128
 k-point ** :  -0.2083-0.4583 0.2083  plane waves:     122
 k-point ** :  -0.3750-0.3750 0.2083  plane waves:     127
 k-point ** :  -0.2917-0.3750 0.2083  plane waves:     123
 k-point ** :  -0.2083-0.3750 0.2083  plane waves:     121
 k-point ** :  -0.2917-0.2917 0.2083  plane waves:     120
 k-point ** :  -0.2083-0.2917 0.2083  plane waves:     116
 k-point ** :  -0.2083-0.2083 0.2083  plane waves:     119
 k-point ** :  -0.2917 0.2917 0.2917  plane waves:     125
 k-point ** :  -0.3750 0.3750 0.2917  plane waves:     129
 k-point ** :  -0.2917 0.3750 0.2917  plane waves:     129
 k-point ** :  -0.4583 0.4583 0.2917  plane waves:     128
 k-point ** :  -0.3750 0.4583 0.2917  plane waves:     129
 k-point ** :  -0.2917 0.4583 0.2917  plane waves:     129
 k-point ** :  -0.4583-0.4583 0.2917  plane waves:     131
 k-point ** :  -0.3750-0.4583 0.2917  plane waves:     129
 k-point ** :  -0.2917-0.4583 0.2917  plane waves:     127
 k-point ** :  -0.3750-0.3750 0.2917  plane waves:     125
 k-point ** :  -0.2917-0.3750 0.2917  plane waves:     122
 k-point ** :  -0.2917-0.2917 0.2917  plane waves:     122
 k-point ** :  -0.3750 0.3750 0.3750  plane waves:     133
 k-point ** :  -0.4583 0.4583 0.3750  plane waves:     131
 k-point ** :  -0.3750 0.4583 0.3750  plane waves:     131
 k-point ** :  -0.4583-0.4583 0.3750  plane waves:     128
 k-point ** :  -0.3750-0.4583 0.3750  plane waves:     126
 k-point ** :  -0.3750-0.3750 0.3750  plane waves:     126
 k-point ** :  -0.4583 0.4583 0.4583  plane waves:     128
 k-point ** :  -0.4583-0.4583 0.4583  plane waves:     126

 maximum and minimum number of plane-waves per node :       135      116

 maximum number of plane-waves:       135
 maximum index in each direction:
   IXMAX=    4   IYMAX=    4   IZMAX=    3
   IXMIN=   -4   IYMIN=   -4   IZMIN=   -4

 serial   3D FFT for wavefunctions
 parallel 3D FFT for charge:
    minimum data exchange during FFTs selected (reduces bandwidth)

 Broyden mixing: mesh for mixing (old mesh)
   NGX =  7   NGY =  7   NGZ =  7
  (NGX  = 24   NGY  = 24   NGZ  = 24)
  gives a total of    343 points

 initial charge density was supplied:
 charge density of overlapping atoms calculated
 number of electron       8.0000000 magnetization
 keeping initial charge density in first step

 Maximum index for augmentation-charges          241 (set IRDMAX)

 First call to EWALD:  gamma=   0.567
 Maximum number of real-space cells 4x 4x 3
 Maximum number of reciprocal cells 3x 3x 3

--------------------------------------- Iteration      1(   1)  ---------------------------------------

 eigenvalue-minimisations  :  2744
 total energy-change (2. order) :-0.5534428E+01  (-0.1713489E+03)
 number of electron       8.0000000 magnetization
 augmentation part        8.0000000 magnetization

 Free energy of the ion-electron system (eV)
  alpha Z        PSCENC =         4.40202223
  Ewald energy   TEWEN  =      -265.18101312
  -Hartree energ DENC   =        -2.30415367
  -exchange      EXHF   =         0.00000000
  -V(xc)+E(xc)   XCENC  =       -17.81530915
  PAW double counting   =        65.95520812      -30.76852678
  entropy T*S    EENTRO =        -0.01357543
  eigenvalues    EBANDS =        34.09908294
  atomic energy  EATOM  =       206.09183643
  Solvation  Ediel_sol  =         0.00000000
  free energy    TOTEN  =        -5.53442843 eV

  energy without entropy =       -5.52085300  energy(sigma->0) =       -5.52764072

[...]

 Broyden mixing:
  rms(total) = 0.14929E+00    rms(broyden)= 0.14918E+00
  rms(prec ) = 0.33582E+00
  weight for this iteration     100.00

[...]

 eigenvalue-minimisations  :  3040
 total energy-change (2. order) : 0.8576794E-02  (-0.1791168E-03)
 number of electron       8.0000045 magnetization
 augmentation part       -0.4669152 magnetization

[...]

 eigenvalues of (default mixing * dielectric matrix)
  average eigenvalue GAMMA=   2.6610
  2.6610

[...]

 average (electrostatic) potential at core
  the test charge radii are     0.9892
  (the norm of the test charge is              1.0000)
       1 -80.5602       2 -80.5602

 E-fermi :   9.1211     XC(G=0): -10.8941     alpha+bet :-15.6819

 k-point     1 :       0.0417    0.0417    0.0417
  band No.  band energies     occupation
      1      -4.3783      2.00000
      2       4.9746      2.00000
      3       6.5192      2.00000
      4       7.5243      2.00000
      5      11.3281      0.00000
      6      15.4870      0.00000
      7      16.5763      0.00000
      8      17.3501      0.00000

[...]

 soft charge-density along one line, spin component           1
         0         1         2         3         4         5         6         7         8         9
 total charge-density along one line

------------------------ aborting loop because EDIFF is reached ----------------------------------------

  FORCE on cell =-STRESS in cart. coord.  units (eV):
  Direction    XX          YY          ZZ          XY          YZ          ZX
  Alpha Z     4.40202     4.40202     4.40202
  Ewald     -90.96023   -90.96023   -83.26083    -0.00000     0.00000     0.00000
  Hartree     0.55538     0.55538     1.39717     0.00000    -0.00000    -0.00000
  E(xc)     -25.42790   -25.42790   -25.38346     0.00012     0.00006     0.00006
  Local     -11.29186   -11.29186   -17.65256    -0.00004    -0.00012    -0.00012
  n-local    77.31525    77.41937    76.99851     1.09991    -0.45316    -0.52524
  augment   -11.98587   -11.98587   -11.91141     0.00008     0.00008     0.00008
  Kinetic    56.78451    57.07422    56.60675     3.38085    -1.95129    -3.47281
  Fock        0.00000     0.00000     0.00000     0.00000     0.00000     0.00000
  Total      -0.41178    -0.41178     1.19619    -0.00000     0.00000     0.00000
  in kB     -21.56827   -21.56827    62.65379    -0.00000     0.00000     0.00000

 VOLUME and BASIS-vectors are now :
  energy-cutoff  :      150.00
  volume of cell :       30.59
      direct lattice vectors                 reciprocal lattice vectors
    -2.450000000  2.450000000  1.274000000     0.000000000  0.204081633  0.392464678
     2.450000000 -2.450000000  1.274000000     0.204081633  0.000000000  0.392464678
     2.450000000  2.450000000 -1.274000000     0.204081633  0.204081633 -0.000000000

[...]

 FORCES acting on ions
    electron-ion (+dipol)            ewald-force                    non-local-force                 convergence-correction
   -.279E-04 0.279E-04 -.136E-13   0.198E-14 0.156E-15 0.342E-17   0.788E-16 -.114E-16 -.377E-17   -.349E-06 0.349E-06 0.304E-16
   0.279E-04 -.279E-04 0.751E-14   -.185E-14 0.943E-16 0.891E-15   -.807E-16 -.113E-16 -.218E-17   0.349E-06 -.349E-06 0.150E-15
   -.920E-14 -.249E-14 -.609E-14   0.139E-15 0.250E-15 0.894E-15   -.191E-17 -.227E-16 -.595E-17   -.174E-15 0.182E-15 0.181E-15

 POSITION                                       TOTAL-FORCE (eV/Angst)
      2.45000      0.00000      0.63700        -0.000000     -0.000000     -0.000000
      0.00000      0.00000      0.00000         0.000000      0.000000      0.000000
    total drift:                               -0.000000     -0.000000     -0.000000

  FREE ENERGIE OF THE ION-ELECTRON SYSTEM (eV)
  free  energy   TOTEN  =       -10.12233381 eV

  energy  without entropy=      -10.10845043  energy(sigma->0) =      -10.11539212

[...]

 d Force = 0.0000000E+00[ 0.000E+00, 0.000E+00]  d Energy = 0.2336886E-01-0.234E-01
 d Force = 0.0000000E+00[ 0.000E+00, 0.000E+00]  d Ewald  =-0.6353206E+00 0.635E+00

 Steepest descent step on ions:
 trial-energy change:   -0.023369  1 .order   -0.023861   -0.042694   -0.005028
  (g-gl).g = 0.427E-01      g.g   = 0.427E-01  gl.gl    = 0.000E+00
 g(Force)  = 0.579E-44   g(Stress)= 0.427E-01 ortho     = 0.000E+00
 gamma     =   0.00000
 trial     =   1.00000
 opt step  =   1.13348  (harmonic =   1.13348) maximal distance =0.00000000
 next E    =   -10.146530   (d E  =  -0.02420)

[...]

 d Force = 0.0000000E+00[ 0.000E+00, 0.000E+00]  d Energy = 0.5652187E-03-0.565E-03
 d Force = 0.0000000E+00[ 0.000E+00, 0.000E+00]  d Ewald  =-0.9032013E-01 0.903E-01

[...]

 eigenvalues of (default mixing * dielectric matrix)
  average eigenvalue GAMMA=   2.2729
  2.2729

[...]

 d Force = 0.0000000E+00[ 0.000E+00, 0.000E+00]  d Energy =-0.8104800E-03 0.810E-03
 d Force = 0.0000000E+00[ 0.000E+00, 0.000E+00]  d Ewald  =-0.1841081E+00 0.184E+00

[...]

 d Force = 0.0000000E+00[ 0.000E+00, 0.000E+00]  d Energy = 0.8599561E-03-0.860E-03
 d Force = 0.0000000E+00[ 0.000E+00, 0.000E+00]  d Ewald  = 0.1181032E+00-0.118E+00

[...]

 d Force = 0.0000000E+00[ 0.000E+00, 0.000E+00]  d Energy =-0.1013597E-03 0.101E-03
 d Force = 0.0000000E+00[ 0.000E+00, 0.000E+00]  d Ewald  = 0.3716548E-01-0.372E-01

[...]

 d Force = 0.0000000E+00[ 0.000E+00, 0.000E+00]  d Energy =-0.1211524E-04 0.121E-04
 d Force = 0.0000000E+00[ 0.000E+00, 0.000E+00]  d Ewald  = 0.5556637E-02-0.556E-02

[...]

 eigenvalue-minimisations  :  3336
 total energy-change (2. order) :-0.3362262E-03  (-0.1017752E-02)
 number of electron       8.0000005 magnetization
 augmentation part       -0.4684474 magnetization

 Broyden mixing:
  rms(total) = 0.64579E-02    rms(broyden)= 0.63705E-02
  rms(prec ) = 0.18910E-01
  weight for this iteration     100.00

[...]

--------------------------------------- Iteration      8(   2)  ---------------------------------------

 eigenvalue-minimisations  :  1632
 total energy-change (2. order) : 0.1174291E-03  (-0.7936661E-05)
 number of electron       8.0000005 magnetization
 augmentation part       -0.4684474 magnetization

 Free energy of the ion-electron system (eV)
  alpha Z        PSCENC =         4.38836770
  Ewald energy   TEWEN  =      -265.02317439
  -Hartree energ DENC   =        -2.49929717
  -exchange      EXHF   =         0.00000000
  -V(xc)+E(xc)   XCENC  =       -17.55783186
  PAW double counting   =        72.23531563      -37.15814121
  entropy T*S    EENTRO =        -0.01243282
  eigenvalues    EBANDS =        29.38893466
  atomic energy  EATOM  =       206.09183643
  Solvation  Ediel_sol  =         0.00000000
  free energy    TOTEN  =       -10.14642303 eV

  energy without entropy =      -10.13399021  energy(sigma->0) =      -10.14020662

 average (electrostatic) potential at core
  the test charge radii are     0.9892
  (the norm of the test charge is              1.0000)
       1 -80.5681       2 -80.5681

 E-fermi :   9.1286     XC(G=0): -10.8802     alpha+bet :-15.6333

[...]

 k-point   159 :      -0.4583   -0.4583    0.4583
  band No.  band energies     occupation
      1       0.8667      2.00000
      2       0.8823      2.00000
      3       2.4758      2.00000
      4       2.4758      2.00000
      5      12.3257      0.00000
      6      18.2259      0.00000
      7      21.5055      0.00000
      8      21.5055      0.00000

 soft charge-density along one line, spin component           1
         0         1         2         3         4         5         6         7         8         9
 total charge-density along one line

------------------------ aborting loop because EDIFF is reached ----------------------------------------

  FORCE on cell =-STRESS in cart. coord.  units (eV):
  Direction    XX          YY          ZZ          XY          YZ          ZX
  Alpha Z     4.38837     4.38837     4.38837
  Ewald     -88.34033   -88.34033   -88.34274    -0.00000    -0.00000    -0.00000
  Hartree     0.73273     0.73273     1.00820     0.00000    -0.00000    -0.00000
  E(xc)     -25.44384   -25.44384   -25.32346     0.00015     0.00008     0.00008
  Local     -14.00131   -14.00131   -12.19160    -0.00004    -0.00012    -0.00012
  n-local    77.78262    77.80875    75.84020     1.22603    -0.48246    -0.59207
  augment   -11.99849   -11.99849   -11.79050     0.00012     0.00011     0.00012
  Kinetic    56.00764    57.73833    56.43006     3.34681    -1.78741    -2.94198
  Fock        0.00000     0.00000     0.00000     0.00000     0.00000     0.00000
  Total       0.00580     0.00580     0.01853     0.00000     0.00000     0.00000
  in kB       0.30299     0.30299     0.96738     0.00000     0.00000     0.00000

 VOLUME and BASIS-vectors are now :
  energy-cutoff  :      150.00
  volume of cell :       30.68
      direct lattice vectors                 reciprocal lattice vectors
    -2.415079456  2.415079456  1.315188406    -0.000000000  0.207032526  0.380173668
     2.415079456 -2.415079456  1.315188406     0.207032526 -0.000000000  0.380173668
     2.415079456  2.415079456 -1.315188406     0.207032526  0.207032526  0.000000000

  length of vectors
     3.659909575  3.659909575  3.659909575     0.432890846  0.432890846  0.292788206

 FORCES acting on ions
    electron-ion (+dipol)            ewald-force                    non-local-force                 convergence-correction
   -.229E-04 0.229E-04 -.798E-14   -.834E-14 0.246E-14 -.153E-14   -.577E-16 0.473E-17 -.387E-16   -.163E-05 0.163E-05 0.314E-16
   0.229E-04 -.229E-04 -.122E-14   0.835E-14 -.256E-14 0.219E-14   0.588E-16 0.102E-16 0.121E-16   0.163E-05 -.163E-05 -.431E-16
   -.103E-13 -.188E-14 -.920E-14   0.515E-17 -.105E-15 0.659E-15   0.105E-17 0.149E-16 -.266E-16   -.196E-15 -.963E-16 -.116E-16

 POSITION                                       TOTAL-FORCE (eV/Angst)
      2.41508     -0.00000      0.65759        -0.000000      0.000000      0.000000
     -0.00000      0.00000      0.00000         0.000000     -0.000000     -0.000000
    total drift:                               -0.000000     -0.000000     -0.000000

  FREE ENERGIE OF THE ION-ELECTRON SYSTEM (eV)
  free  energy   TOTEN  =       -10.14642303 eV

  energy  without entropy=      -10.13399021  energy(sigma->0) =      -10.14020662

 d Force = 0.0000000E+00[ 0.000E+00, 0.000E+00]  d Energy = 0.2191383E-03-0.219E-03
 d Force = 0.0000000E+00[ 0.000E+00, 0.000E+00]  d Ewald  = 0.5910848E+00-0.591E+00

 Conjugate gradient step on ions:
 trial-energy change:   -0.000219  1 .order   -0.000293   -0.000641    0.000056
  (g-gl).g = 0.502E-03      g.g   = 0.619E-03  gl.gl    = 0.427E-01
 g(Force)  = 0.163E-42   g(Stress)= 0.619E-03 ortho     = 0.117E-03
 gamma     =   0.01175
 trial     =   1.03352
 opt step  =   0.95111  (harmonic =   0.95111) maximal distance =0.00000000
 next E    =   -10.146499   (d E  =  -0.00029)

 reached required accuracy - stopping structural energy minimisation
 writing wavefunctions