 vasp.5.4.4.18Apr17-6-g9f103f2a35 (build Dec 09 2018 21:25:21) complex

 executed on IFC18.0.1.163_CrayMP date 2019.03.19  13:35:17

 INCAR:
 POTCAR:   PAW_PBE Si 05Jan2001

 POTCAR:   PAW_PBE Si 05Jan2001
   VRHFIN =Si: s2p2

   TITEL  = PAW_PBE Si 05Jan2001
   POMASS =   28.085; ZVAL   =    4.000    mass and valenz
   ENMAX  =  245.345; ENMIN  =  184.009 eV
   QCUT   =   -4.246; QGAM   =    8.493    optimization parameters

   Description
     l     E      TYP  RCUT    TYP  RCUT
     0   .000     23  1.900
     0   .000     23  1.900
     1   .000     23  1.900
     1   .000     23  1.900
     2   .000      7  1.900

 PAW_PBE Si 05Jan2001                   :

 POSCAR: Si2
  positions in direct lattice
 exchange correlation table for  LEXCH =        8
   RHO(1)=    0.500       N(1)  =     2000
   RHO(2)=  100.500       N(2)  =     4000

 ion  position               nearest neighbor table
   1  0.500  0.500  0.500-   2 2.35   2 2.35   2 2.35   2 2.35
   2  0.750  0.750  0.750-   1 2.35   1 2.35   1 2.35   1 2.35

  LATTYP: Found a face centered cubic cell.
 ALAT       =     5.4300000000

  Lattice vectors:

 A1 = (   0.0000000000,   2.7150000000,   2.7150000000)
 A2 = (   2.7150000000,   0.0000000000,   2.7150000000)
 A3 = (   2.7150000000,   2.7150000000,   0.0000000000)

Analysis of symmetry for initial positions (statically):
 Subroutine PRICEL returns:
 Original cell was already a primitive cell.

 Routine SETGRP: Setting up the symmetry group for a
 face centered cubic supercell.

 Subroutine GETGRP returns: Found 48 space group operations
 (whereof 24 operations were pure point group operations)
 out of a pool of 48 trial point group operations.

The static configuration has the point symmetry T_d .
 The point group associated with its full space group is O_h .

Analysis of symmetry for dynamics (positions and initial velocities):
 Subroutine PRICEL returns:
 Original cell was already a primitive cell.

 Routine SETGRP: Setting up the symmetry group for a
 face centered cubic supercell.

 Subroutine GETGRP returns: Found 48 space group operations
 (whereof 24 operations were pure point group operations)
 out of a pool of 48 trial point group operations.

The dynamic configuration has the point symmetry T_d .
 The point group associated with its full space group is O_h .

 Subroutine INISYM returns: Found 48 space group operations
 (whereof 24 operations are pure point group operations),
 and found     1 'primitive' translations

 KPOINTS: Automatic kpoint scheme

Automatic generation of k-mesh.
Space group operators:
 irot       det(A)        alpha          n_x          n_y          n_z        tau_x        tau_y        tau_z
    1     1.000000     0.000001     1.000000     0.000000     0.000000     0.000000     0.000000     0.000000
    2     1.000000   120.000000    -0.577350    -0.577350    -0.577350     0.000000     0.000000     0.000000
    3     1.000000   120.000000     0.577350     0.577350     0.577350     0.000000     0.000000     0.000000
    4    -1.000000    90.000000    -0.000000    -0.000000    -1.000000     0.000000     0.000000     0.000000
    5    -1.000000   180.000000    -0.000000     0.707107     0.707107     0.000000     0.000000     0.000000
    6    -1.000000    90.000000    -0.000000     1.000000    -0.000000     0.000000     0.000000     0.000000
    7     1.000000   180.000000     0.000000     0.000000    -1.000000     0.000000     0.000000     0.000000
    8     1.000000   120.000000    -0.577350     0.577350     0.577350     0.000000     0.000000     0.000000
    9     1.000000   120.000000    -0.577350     0.577350    -0.577350     0.000000     0.000000     0.000000
   10    -1.000000    90.000000     0.000000     0.000000     1.000000     0.000000     0.000000     0.000000
   11    -1.000000    90.000000    -1.000000     0.000000    -0.000000     0.000000     0.000000     0.000000
   12    -1.000000   180.000000     0.707107     0.000000     0.707107     0.000000     0.000000     0.000000
   13     1.000000   120.000000     0.577350    -0.577350     0.577350     0.000000     0.000000     0.000000
   14     1.000000   120.000000    -0.577350    -0.577350     0.577350     0.000000     0.000000     0.000000
   15     1.000000   180.000000     1.000000     0.000000     0.000000     0.000000     0.000000     0.000000
   16    -1.000000    90.000000     0.000000    -1.000000     0.000000     0.000000     0.000000     0.000000
   17    -1.000000   180.000000     0.707107     0.707107    -0.000000     0.000000     0.000000     0.000000
   18    -1.000000    90.000000     1.000000     0.000000     0.000000     0.000000     0.000000     0.000000
   19     1.000000   120.000000     0.577350    -0.577350    -0.577350     0.000000     0.000000     0.000000
   20     1.000000   180.000000     0.000000    -1.000000     0.000000     0.000000     0.000000     0.000000
   21     1.000000   120.000000     0.577350     0.577350    -0.577350     0.000000     0.000000     0.000000
   22    -1.000000   180.000000    -0.000000    -0.707107     0.707107     0.000000     0.000000     0.000000
   23    -1.000000   180.000000     0.707107    -0.707107    -0.000000     0.000000     0.000000     0.000000
   24    -1.000000   180.000000    -0.707107     0.000000     0.707107     0.000000     0.000000     0.000000
   25    -1.000000     0.000001     1.000000     0.000000     0.000000     0.250000     0.250000     0.250000
   26    -1.000000   120.000000    -0.577350    -0.577350    -0.577350     0.250000     0.250000     0.250000
   27    -1.000000   120.000000     0.577350     0.577350     0.577350     0.250000     0.250000     0.250000
   28     1.000000    90.000000    -0.000000    -0.000000    -1.000000     0.250000     0.250000     0.250000
   29     1.000000   180.000000    -0.000000     0.707107     0.707107     0.250000     0.250000     0.250000
   30     1.000000    90.000000    -0.000000     1.000000    -0.000000     0.250000     0.250000     0.250000
   31    -1.000000   180.000000     0.000000     0.000000    -1.000000     0.250000     0.250000     0.250000
   32    -1.000000   120.000000    -0.577350     0.577350     0.577350     0.250000     0.250000     0.250000
   33    -1.000000   120.000000    -0.577350     0.577350    -0.577350     0.250000     0.250000     0.250000
   34     1.000000    90.000000     0.000000     0.000000     1.000000     0.250000     0.250000     0.250000
   35     1.000000    90.000000    -1.000000     0.000000    -0.000000     0.250000     0.250000     0.250000
   36     1.000000   180.000000     0.707107     0.000000     0.707107     0.250000     0.250000     0.250000
   37    -1.000000   120.000000     0.577350    -0.577350     0.577350     0.250000     0.250000     0.250000
   38    -1.000000   120.000000    -0.577350    -0.577350     0.577350     0.250000     0.250000     0.250000
   39    -1.000000   180.000000     1.000000     0.000000     0.000000     0.250000     0.250000     0.250000
   40     1.000000    90.000000     0.000000    -1.000000     0.000000     0.250000     0.250000     0.250000
   41     1.000000   180.000000     0.707107     0.707107    -0.000000     0.250000     0.250000     0.250000
   42     1.000000    90.000000     1.000000     0.000000     0.000000     0.250000     0.250000     0.250000
   43    -1.000000   120.000000     0.577350    -0.577350    -0.577350     0.250000     0.250000     0.250000
   44    -1.000000   180.000000     0.000000    -1.000000     0.000000     0.250000     0.250000     0.250000
   45    -1.000000   120.000000     0.577350     0.577350    -0.577350     0.250000     0.250000     0.250000
   46     1.000000   180.000000    -0.000000    -0.707107     0.707107     0.250000     0.250000     0.250000
   47     1.000000   180.000000     0.707107    -0.707107    -0.000000     0.250000     0.250000     0.250000
   48     1.000000   180.000000    -0.707107     0.000000     0.707107     0.250000     0.250000     0.250000

 Subroutine IBZKPT returns following result:

 Found    110 irreducible k-points:

 Following reciprocal coordinates:
            Coordinates               Weight
  0.050000  0.050000  0.050000     96.000000
  0.150000  0.050000  0.050000    288.000000
  0.250000  0.050000  0.050000    288.000000
  0.350000  0.050000  0.050000    288.000000
  0.450000  0.050000  0.050000    288.000000
 -0.450000  0.050000  0.050000    288.000000
 -0.350000  0.050000  0.050000    288.000000
 -0.250000  0.050000  0.050000    288.000000
 -0.150000  0.050000  0.050000    288.000000
 -0.050000  0.050000  0.050000    288.000000
  0.150000  0.150000  0.050000    288.000000
  0.250000  0.150000  0.050000    576.000000
  0.350000  0.150000  0.050000    576.000000
  0.450000  0.150000  0.050000    576.000000
 -0.450000  0.150000  0.050000    576.000000
 -0.350000  0.150000  0.050000    576.000000
 -0.250000  0.150000  0.050000    576.000000
 -0.150000  0.150000  0.050000    576.000000
 -0.050000  0.150000  0.050000    576.000000
  0.250000  0.250000  0.050000    288.000000
  0.350000  0.250000  0.050000    576.000000
  0.450000  0.250000  0.050000    576.000000
 -0.450000  0.250000  0.050000    576.000000
 -0.350000  0.250000  0.050000    576.000000
 -0.250000  0.250000  0.050000    576.000000
 -0.150000  0.250000  0.050000    576.000000
 -0.050000  0.250000  0.050000    576.000000
  0.350000  0.350000  0.050000    288.000000
  0.450000  0.350000  0.050000    576.000000
 -0.450000  0.350000  0.050000    576.000000
 -0.350000  0.350000  0.050000    576.000000
 -0.250000  0.350000  0.050000    576.000000
 -0.150000  0.350000  0.050000    576.000000
 -0.050000  0.350000  0.050000    576.000000
  0.450000  0.450000  0.050000    288.000000
 -0.450000  0.450000  0.050000    576.000000
 -0.350000  0.450000  0.050000    576.000000
 -0.250000  0.450000  0.050000    576.000000
 -0.150000  0.450000  0.050000    576.000000
 -0.050000  0.450000  0.050000    576.000000
 -0.450000 -0.450000  0.050000    288.000000
 -0.350000 -0.450000  0.050000    576.000000
 -0.250000 -0.450000  0.050000    576.000000
 -0.150000 -0.450000  0.050000    576.000000
 -0.350000 -0.350000  0.050000    288.000000
 -0.250000 -0.350000  0.050000    576.000000
 -0.150000 -0.350000  0.050000    576.000000
 -0.250000 -0.250000  0.050000    288.000000
 -0.150000 -0.250000  0.050000    576.000000
 -0.150000 -0.150000  0.050000    288.000000
  0.150000  0.150000  0.150000     96.000000
  0.250000  0.150000  0.150000    288.000000
  0.350000  0.150000  0.150000    288.000000
  0.450000  0.150000  0.150000    288.000000
 -0.450000  0.150000  0.150000    288.000000
 -0.350000  0.150000  0.150000    288.000000
 -0.250000  0.150000  0.150000    288.000000
 -0.150000  0.150000  0.150000    288.000000
  0.250000  0.250000  0.150000    288.000000
  0.350000  0.250000  0.150000    576.000000
[...]
 -0.350000  0.450000  0.250000    576.000000
 -0.250000  0.450000  0.250000    576.000000
 -0.450000 -0.450000  0.250000    288.000000
 -0.350000 -0.450000  0.250000    576.000000
 -0.350000 -0.350000  0.250000    288.000000
  0.350000  0.350000  0.350000     96.000000
  0.450000  0.350000  0.350000    288.000000
 -0.450000  0.350000  0.350000    288.000000
[...]
   0.05000000  0.05000000  0.05000000       0.002
   0.15000000  0.05000000  0.05000000       0.006
   0.25000000  0.05000000  0.05000000       0.006
   0.35000000  0.05000000  0.05000000       0.006
   0.45000000  0.05000000  0.05000000       0.006
  -0.45000000  0.05000000  0.05000000       0.006
  -0.35000000  0.05000000  0.05000000       0.006
  -0.25000000  0.05000000  0.05000000       0.006
  -0.15000000  0.05000000  0.05000000       0.006
  -0.05000000  0.05000000  0.05000000       0.006
   0.15000000  0.15000000  0.05000000       0.006
   0.25000000  0.15000000  0.05000000       0.012
   0.35000000  0.15000000  0.05000000       0.012
   0.45000000  0.15000000  0.05000000       0.012
  -0.45000000  0.15000000  0.05000000       0.012
  -0.35000000  0.15000000  0.05000000       0.012
  -0.25000000  0.15000000  0.05000000       0.012
  -0.15000000  0.15000000  0.05000000       0.012
  -0.05000000  0.15000000  0.05000000       0.012
   0.25000000  0.25000000  0.05000000       0.006
   0.35000000  0.25000000  0.05000000       0.012
   0.45000000  0.25000000  0.05000000       0.012
  -0.45000000  0.25000000  0.05000000       0.012
  -0.35000000  0.25000000  0.05000000       0.012
  -0.25000000  0.25000000  0.05000000       0.012
  -0.15000000  0.25000000  0.05000000       0.012
  -0.05000000  0.25000000  0.05000000       0.012
   0.35000000  0.35000000  0.05000000       0.006
   0.45000000  0.35000000  0.05000000       0.012
  -0.45000000  0.35000000  0.05000000       0.012
  -0.35000000  0.35000000  0.05000000       0.012
  -0.25000000  0.35000000  0.05000000       0.012
  -0.15000000  0.35000000  0.05000000       0.012
  -0.05000000  0.35000000  0.05000000       0.012
   0.45000000  0.45000000  0.05000000       0.006
  -0.45000000  0.45000000  0.05000000       0.012
  -0.35000000  0.45000000  0.05000000       0.012
  -0.25000000  0.45000000  0.05000000       0.012
  -0.15000000  0.45000000  0.05000000       0.012
  -0.05000000  0.45000000  0.05000000       0.012
  -0.45000000 -0.45000000  0.05000000       0.006
  -0.35000000 -0.45000000  0.05000000       0.012
  -0.25000000 -0.45000000  0.05000000       0.012
  -0.15000000 -0.45000000  0.05000000       0.012
  -0.35000000 -0.35000000  0.05000000       0.006
  -0.25000000 -0.35000000  0.05000000       0.012
  -0.15000000 -0.35000000  0.05000000       0.012
  -0.25000000 -0.25000000  0.05000000       0.006
  -0.15000000 -0.25000000  0.05000000       0.012
  -0.15000000 -0.15000000  0.05000000       0.006
   0.15000000  0.15000000  0.15000000       0.002
   0.25000000  0.15000000  0.15000000       0.006
   0.35000000  0.15000000  0.15000000       0.006
   0.45000000  0.15000000  0.15000000       0.006
  -0.45000000  0.15000000  0.15000000       0.006
  -0.35000000  0.15000000  0.15000000       0.006
  -0.25000000  0.15000000  0.15000000       0.006
  -0.15000000  0.15000000  0.15000000       0.006
   0.25000000  0.25000000  0.15000000       0.006
   0.35000000  0.25000000  0.15000000       0.012
[...]
  -0.35000000  0.45000000  0.25000000       0.012
  -0.25000000  0.45000000  0.25000000       0.012
  -0.45000000 -0.45000000  0.25000000       0.006
  -0.35000000 -0.45000000  0.25000000       0.012
  -0.35000000 -0.35000000  0.25000000       0.006
   0.35000000  0.35000000  0.35000000       0.002
   0.45000000  0.35000000  0.35000000       0.006
  -0.45000000  0.35000000  0.35000000       0.006
  -0.35000000  0.35000000  0.35000000       0.006
   0.45000000  0.45000000  0.35000000       0.006
  -0.45000000  0.45000000  0.35000000       0.012
  -0.35000000  0.45000000  0.35000000       0.012
  -0.45000000 -0.45000000  0.35000000       0.006
   0.45000000  0.45000000  0.45000000       0.002
  -0.45000000  0.45000000  0.45000000       0.006

 position of ions in fractional coordinates (direct lattice)
   0.50000000  0.50000000  0.50000000
   0.75000000  0.75000000  0.75000000

 position of ions in cartesian coordinates  (Angst):
   2.71500000  2.71500000  2.71500000
   4.07250000  4.07250000  4.07250000

 k-point  1 :   0.0500 0.0500 0.0500  plane waves:     495
 k-point  2 :   0.1500 0.0500 0.0500  plane waves:     485
 k-point  3 :   0.2500 0.0500 0.0500  plane waves:     479
 k-point  4 :   0.3500 0.0500 0.0500  plane waves:     483
 k-point  5 :   0.4500 0.0500 0.0500  plane waves:     473
 k-point  6 :  -0.4500 0.0500 0.0500  plane waves:     470
 k-point  7 :  -0.3500 0.0500 0.0500  plane waves:     476
 k-point  8 :  -0.2500 0.0500 0.0500  plane waves:     482
 k-point  9 :  -0.1500 0.0500 0.0500  plane waves:     483
 k-point 10 :  -0.0500 0.0500 0.0500  plane waves:     490
 k-point 11 :   0.1500 0.1500 0.0500  plane waves:     485
 k-point 12 :   0.2500 0.1500 0.0500  plane waves:     477
 k-point 13 :   0.3500 0.1500 0.0500  plane waves:     476
 k-point 14 :   0.4500 0.1500 0.0500  plane waves:     472
 k-point 15 :  -0.4500 0.1500 0.0500  plane waves:     465
 k-point 16 :  -0.3500 0.1500 0.0500  plane waves:     470
 k-point 17 :  -0.2500 0.1500 0.0500  plane waves:     473
 k-point 18 :  -0.1500 0.1500 0.0500  plane waves:     480
 k-point 19 :  -0.0500 0.1500 0.0500  plane waves:     485
 k-point 20 :   0.2500 0.2500 0.0500  plane waves:     476
 k-point 21 :   0.3500 0.2500 0.0500  plane waves:     472
 k-point 22 :   0.4500 0.2500 0.0500  plane waves:     467
 k-point 23 :  -0.4500 0.2500 0.0500  plane waves:     467
 k-point 24 :  -0.3500 0.2500 0.0500  plane waves:     469
 k-point 25 :  -0.2500 0.2500 0.0500  plane waves:     478
 k-point 26 :  -0.1500 0.2500 0.0500  plane waves:     475
 k-point 27 :  -0.0500 0.2500 0.0500  plane waves:     480
 k-point 28 :   0.3500 0.3500 0.0500  plane waves:     471
 k-point 29 :   0.4500 0.3500 0.0500  plane waves:     468
 k-point 30 :  -0.4500 0.3500 0.0500  plane waves:     474
 k-point 31 :  -0.3500 0.3500 0.0500  plane waves:     470
 k-point 32 :  -0.2500 0.3500 0.0500  plane waves:     472
 k-point 33 :  -0.1500 0.3500 0.0500  plane waves:     471
 k-point 34 :  -0.0500 0.3500 0.0500  plane waves:     474
 k-point 35 :   0.4500 0.4500 0.0500  plane waves:     462
 k-point 36 :  -0.4500 0.4500 0.0500  plane waves:     466
 k-point 37 :  -0.3500 0.4500 0.0500  plane waves:     474
 k-point 38 :  -0.2500 0.4500 0.0500  plane waves:     466
 k-point 39 :  -0.1500 0.4500 0.0500  plane waves:     468
 k-point 40 :  -0.0500 0.4500 0.0500  plane waves:     470
 k-point 41 :  -0.4500-0.4500 0.0500  plane waves:     466
 k-point 42 :  -0.3500-0.4500 0.0500  plane waves:     466
 k-point 43 :  -0.2500-0.4500 0.0500  plane waves:     469
 k-point 44 :  -0.1500-0.4500 0.0500  plane waves:     469
 k-point 45 :  -0.3500-0.3500 0.0500  plane waves:     467
 k-point 46 :  -0.2500-0.3500 0.0500  plane waves:     469
 k-point 47 :  -0.1500-0.3500 0.0500  plane waves:     471
 k-point 48 :  -0.2500-0.2500 0.0500  plane waves:     471
 k-point 49 :  -0.1500-0.2500 0.0500  plane waves:     479
 k-point 50 :  -0.1500-0.1500 0.0500  plane waves:     480
 k-point 51 :   0.1500 0.1500 0.1500  plane waves:     489
 k-point 52 :   0.2500 0.1500 0.1500  plane waves:     481
 k-point 53 :   0.3500 0.1500 0.1500  plane waves:     479
 k-point 54 :   0.4500 0.1500 0.1500  plane waves:     469
 k-point 55 :  -0.4500 0.1500 0.1500  plane waves:     470
 k-point 56 :  -0.3500 0.1500 0.1500  plane waves:     468
 k-point 57 :  -0.2500 0.1500 0.1500  plane waves:     467
 k-point 58 :  -0.1500 0.1500 0.1500  plane waves:     475
 k-point 59 :   0.2500 0.2500 0.1500  plane waves:     480
 k-point 60 :   0.3500 0.2500 0.1500  plane waves:     475
[...]
 k-point 85 :   0.4500 0.2500 0.2500  plane waves:     479
 k-point 86 :  -0.4500 0.2500 0.2500  plane waves:     475
 k-point 87 :  -0.3500 0.2500 0.2500  plane waves:     465
 k-point 88 :  -0.2500 0.2500 0.2500  plane waves:     472
 k-point 89 :   0.3500 0.3500 0.2500  plane waves:     471
 k-point 90 :   0.4500 0.3500 0.2500  plane waves:     474
 k-point 91 :  -0.4500 0.3500 0.2500  plane waves:     473
 k-point 92 :  -0.3500 0.3500 0.2500  plane waves:     470
 k-point 93 :  -0.2500 0.3500 0.2500  plane waves:     472
 k-point 94 :   0.4500 0.4500 0.2500  plane waves:     470
 k-point 95 :  -0.4500 0.4500 0.2500  plane waves:     472
 k-point 96 :  -0.3500 0.4500 0.2500  plane waves:     471
 k-point 97 :  -0.2500 0.4500 0.2500  plane waves:     471
 k-point 98 :  -0.4500-0.4500 0.2500  plane waves:     471
 k-point 99 :  -0.3500-0.4500 0.2500  plane waves:     472
 k-point ** :  -0.3500-0.3500 0.2500  plane waves:     473
 k-point ** :   0.3500 0.3500 0.3500  plane waves:     477
 k-point ** :   0.4500 0.3500 0.3500  plane waves:     471
 k-point ** :  -0.4500 0.3500 0.3500  plane waves:     468
 k-point ** :  -0.3500 0.3500 0.3500  plane waves:     465
 k-point ** :   0.4500 0.4500 0.3500  plane waves:     470
 k-point ** :  -0.4500 0.4500 0.3500  plane waves:     467
 k-point ** :  -0.3500 0.4500 0.3500  plane waves:     470
 k-point ** :  -0.4500-0.4500 0.3500  plane waves:     467
 k-point ** :   0.4500 0.4500 0.4500  plane waves:     470
 k-point ** :  -0.4500 0.4500 0.4500  plane waves:     467

 maximum and minimum number of plane-waves per node :       495      462

 maximum number of plane-waves:       495
 maximum index in each direction:
   IXMAX=    5   IYMAX=    5   IZMAX=    5
   IXMIN=   -5   IYMIN=   -5   IZMIN=   -5

 serial   3D FFT for wavefunctions
 parallel 3D FFT for charge:
    minimum data exchange during FFTs selected (reduces bandwidth)

 Broyden mixing: mesh for mixing (old mesh)
   NGX = 11   NGY = 11   NGZ = 11
  (NGX  = 32   NGY  = 32   NGZ  = 32)
  gives a total of   1331 points

 initial charge density was supplied:
 charge density of overlapping atoms calculated
 number of electron       8.0000000 magnetization
 keeping initial charge density in first step

 Maximum index for augmentation-charges          433 (set IRDMAX)

 First call to EWALD:  gamma=   0.518
 Maximum number of real-space cells 3x 3x 3
 Maximum number of reciprocal cells 3x 3x 3

--------------------------------------- Iteration      1(   1)  ---------------------------------------

 eigenvalue-minimisations  :  1808
 total energy-change (2. order) : 0.1782699E+01  (-0.2529356E+03)
 number of electron       8.0000000 magnetization
 augmentation part        8.0000000 magnetization

 Free energy of the ion-electron system (eV)
  alpha Z        PSCENC =         3.36414203
  Ewald energy   TEWEN  =      -228.56352493
  -Hartree energ DENC   =       -11.00108243
  -exchange      EXHF   =         0.00000000
  -V(xc)+E(xc)   XCENC  =       -18.60181216
  PAW double counting   =        65.95520812      -30.76852678
  entropy T*S    EENTRO =        -0.01632456
  eigenvalues    EBANDS =        15.28493360
  atomic energy  EATOM  =       206.12968587
  Solvation  Ediel_sol  =         0.00000000
  free energy    TOTEN  =         1.78269875 eV

  energy without entropy =        1.79902331  energy(sigma->0) =        1.79086103

[...]

 eigenvalue-minimisations  :  2800
 total energy-change (2. order) :-0.1266012E+02  (-0.1201743E+02)
 number of electron       8.0000000 magnetization
 augmentation part        8.0000000 magnetization

[...]

 Broyden mixing:
  rms(total) = 0.30056E+00    rms(broyden)= 0.30055E+00
  rms(prec ) = 0.87206E+00
  weight for this iteration     100.00

[...]

 eigenvalues of (default mixing * dielectric matrix)
  average eigenvalue GAMMA=   2.4317
  2.4317

[...]

 eigenvalue-minimisations  :  2232
 total energy-change (2. order) : 0.5683226E-01  (-0.1511027E-01)
 number of electron       7.9999994 magnetization
 augmentation part       -0.4576576 magnetization

[...]

 Broyden mixing:
  rms(total) = 0.25018E-02    rms(broyden)= 0.25014E-02
  rms(prec ) = 0.82901E-02
  weight for this iteration     100.00

 eigenvalues of (default mixing * dielectric matrix)
  average eigenvalue GAMMA=   2.1204
  1.3618  2.7999  2.1996

[...]

--------------------------------------- Iteration      1(   9)  ---------------------------------------

 eigenvalue-minimisations  :  1384
 total energy-change (2. order) :-0.9237224E-04  (-0.9432287E-05)
 number of electron       7.9999994 magnetization
 augmentation part       -0.4586369 magnetization

 Free energy of the ion-electron system (eV)
  alpha Z        PSCENC =         3.36414203
  Ewald energy   TEWEN  =      -228.56352493
  -Hartree energ DENC   =       -14.90377140
  -exchange      EXHF   =         0.00000000
  -V(xc)+E(xc)   XCENC  =       -17.96003630
  PAW double counting   =        74.50781903      -39.54702720
  entropy T*S    EENTRO =        -0.00005880
  eigenvalues    EBANDS =         6.13448114
  atomic energy  EATOM  =       206.12968587
  Solvation  Ediel_sol  =         0.00000000
  free energy    TOTEN  =       -10.83829056 eV

  energy without entropy =      -10.83823176  energy(sigma->0) =      -10.83826116

 average (electrostatic) potential at core
  the test charge radii are     0.9892
  (the norm of the test charge is              1.0000)
       1 -83.2501       2 -83.2501

 E-fermi :   6.1269     XC(G=0):  -9.4138     alpha+bet :-11.9845

 k-point     1 :       0.0500    0.0500    0.0500
  band No.  band energies     occupation
      1      -6.0992      2.00000
      2       5.4728      2.00000
      3       5.7750      1.98715
      4       5.7750      1.98715
      5       8.4592      0.00000
      6       8.4804      0.00000
      7       8.4804      0.00000
      8       9.4461      0.00000

[...]

 k-point   110 :      -0.4500    0.4500    0.4500
  band No.  band energies     occupation
      1      -3.6991      2.00000
      2      -1.0576      2.00000
      3       3.7691      2.00000
      4       4.4666      2.00000
      5       7.9981      0.00000
      6       9.1948      0.00000
      7       9.5842      0.00000
      8      13.9636      0.00000

 soft charge-density along one line, spin component           1
         0         1         2         3         4         5         6         7         8         9
 total charge-density along one line

------------------------ aborting loop because EDIFF is reached ----------------------------------------

  FORCE on cell =-STRESS in cart. coord.  units (eV):
  Direction    XX          YY          ZZ          XY          YZ          ZX
  Alpha Z     3.36414     3.36414     3.36414
  Ewald     -76.18788   -76.18788   -76.18788    -0.00000    -0.00000     0.00000
  Hartree     4.97105     4.97105     4.97105    -0.00000    -0.00000    -0.00000
  E(xc)     -25.37462   -25.37462   -25.37462     0.00001     0.00001     0.00001
  Local     -29.26312   -29.26312   -29.26311     0.00005     0.00005     0.00005
  n-local    77.88085    80.37462    75.43968     1.08059    -1.11935     0.02842
  augment   -11.64872   -11.64872   -11.64872    -0.00004    -0.00004    -0.00004
  Kinetic    58.32996    56.02001    55.78958     0.84478    -0.88261     0.02722
  Fock        0.00000     0.00000     0.00000     0.00000     0.00000     0.00000
  Total       0.47243     0.47243     0.47243     0.00000     0.00000    -0.00000
  in kB      18.91058    18.91058    18.91058     0.00000     0.00000    -0.00000

 VOLUME and BASIS-vectors are now :
  energy-cutoff  :      300.00
  volume of cell :       40.03
      direct lattice vectors                 reciprocal lattice vectors
     0.000000000  2.715000000  2.715000000    -0.184162063  0.184162063  0.184162063
     2.715000000  0.000000000  2.715000000     0.184162063 -0.184162063  0.184162063
     2.715000000  2.715000000  0.000000000     0.184162063  0.184162063 -0.184162063

  length of vectors
     3.839589822  3.839589822  3.839589822     0.318978049  0.318978049  0.318978049

 FORCES acting on ions
    electron-ion (+dipol)            ewald-force                    non-local-force                 convergence-correction
   0.108E-05 0.108E-05 0.216E-05   -.476E-15 -.149E-14 0.391E-14   -.289E-17 -.983E-17 -.204E-16   -.295E-06 -.295E-06 -.296E-06
   -.108E-05 -.108E-05 -.216E-05   0.623E-15 0.106E-14 -.375E-14   0.534E-17 0.881E-17 0.186E-16   0.295E-06 0.295E-06 0.296E-06
   0.895E-13 0.279E-13 -.349E-14   0.147E-15 -.426E-15 0.164E-15   0.245E-17 -.101E-17 -.175E-17   0.176E-14 0.363E-14 -.397E-14

 POSITION                                       TOTAL-FORCE (eV/Angst)
      2.71500      2.71500      2.71500        -0.000000     -0.000000     -0.000000
      4.07250      4.07250      4.07250         0.000000      0.000000      0.000000
    total drift:                                0.000000      0.000000     -0.000000

  FREE ENERGIE OF THE ION-ELECTRON SYSTEM (eV)
  free  energy   TOTEN  =       -10.83829056 eV

  energy  without entropy=      -10.83823176  energy(sigma->0) =      -10.83826116

 reached required accuracy - stopping structural energy minimisation
 writing wavefunctions