 vasp.5.4.4.18Apr17-6-g9f103f2a35 (build Dec 09 2018 21:25:21) complex

 executed on IFC18.0.1.163_CrayMP date 2019.03.19  13:24:16

 INCAR:
 POTCAR:   PAW_PBE Si 05Jan2001

 POTCAR:   PAW_PBE Si 05Jan2001
   VRHFIN =Si: s2p2

   TITEL  = PAW_PBE Si 05Jan2001
   POMASS =   28.085; ZVAL   =    4.000    mass and valenz
   ENMAX  =  245.345; ENMIN  =  184.009 eV
   QCUT   =   -4.246; QGAM   =    8.493    optimization parameters

   Description
     l     E      TYP  RCUT    TYP  RCUT
     0   .000     23  1.900
     0   .000     23  1.900
     1   .000     23  1.900
     1   .000     23  1.900
     2   .000      7  1.900

 PAW_PBE Si 05Jan2001                   :

 POSCAR: Si2
  positions in direct lattice
 exchange correlation table for  LEXCH =        8
   RHO(1)=    0.500       N(1)  =     2000
   RHO(2)=  100.500       N(2)  =     4000

 ion  position               nearest neighbor table
   1  0.500  0.500  0.500-   2 2.35   2 2.35   2 2.35   2 2.35
   2  0.750  0.750  0.750-   1 2.35   1 2.35   1 2.35   1 2.35

  LATTYP: Found a face centered cubic cell.
 ALAT       =     5.4300000000

  Lattice vectors:

 A1 = (   0.0000000000,   2.7150000000,   2.7150000000)
 A2 = (   2.7150000000,   0.0000000000,   2.7150000000)
 A3 = (   2.7150000000,   2.7150000000,   0.0000000000)

Analysis of symmetry for initial positions (statically):
 Subroutine PRICEL returns:
 Original cell was already a primitive cell.

 Routine SETGRP: Setting up the symmetry group for a
 face centered cubic supercell.

 Subroutine GETGRP returns: Found 48 space group operations
 (whereof 24 operations were pure point group operations)
 out of a pool of 48 trial point group operations.

The static configuration has the point symmetry T_d .
 The point group associated with its full space group is O_h .

Analysis of symmetry for dynamics (positions and initial velocities):
 Subroutine PRICEL returns:
 Original cell was already a primitive cell.

 Routine SETGRP: Setting up the symmetry group for a
 face centered cubic supercell.

 Subroutine GETGRP returns: Found 48 space group operations
 (whereof 24 operations were pure point group operations)
 out of a pool of 48 trial point group operations.

The dynamic configuration has the point symmetry T_d .
 The point group associated with its full space group is O_h .

 Subroutine INISYM returns: Found 48 space group operations
 (whereof 24 operations are pure point group operations),
 and found     1 'primitive' translations

 KPOINTS: Automatic kpoint scheme

Automatic generation of k-mesh.
Space group operators:
 irot       det(A)        alpha          n_x          n_y          n_z        tau_x        tau_y        tau_z
    1     1.000000     0.000001     1.000000     0.000000     0.000000     0.000000     0.000000     0.000000
    2     1.000000   120.000000    -0.577350    -0.577350    -0.577350     0.000000     0.000000     0.000000
    3     1.000000   120.000000     0.577350     0.577350     0.577350     0.000000     0.000000     0.000000
    4    -1.000000    90.000000    -0.000000    -0.000000    -1.000000     0.000000     0.000000     0.000000
    5    -1.000000   180.000000    -0.000000     0.707107     0.707107     0.000000     0.000000     0.000000
    6    -1.000000    90.000000    -0.000000     1.000000    -0.000000     0.000000     0.000000     0.000000
    7     1.000000   180.000000     0.000000     0.000000    -1.000000     0.000000     0.000000     0.000000
    8     1.000000   120.000000    -0.577350     0.577350     0.577350     0.000000     0.000000     0.000000
    9     1.000000   120.000000    -0.577350     0.577350    -0.577350     0.000000     0.000000     0.000000
   10    -1.000000    90.000000     0.000000     0.000000     1.000000     0.000000     0.000000     0.000000
   11    -1.000000    90.000000    -1.000000     0.000000    -0.000000     0.000000     0.000000     0.000000
   12    -1.000000   180.000000     0.707107     0.000000     0.707107     0.000000     0.000000     0.000000
   13     1.000000   120.000000     0.577350    -0.577350     0.577350     0.000000     0.000000     0.000000
   14     1.000000   120.000000    -0.577350    -0.577350     0.577350     0.000000     0.000000     0.000000
   15     1.000000   180.000000     1.000000     0.000000     0.000000     0.000000     0.000000     0.000000
   16    -1.000000    90.000000     0.000000    -1.000000     0.000000     0.000000     0.000000     0.000000
   17    -1.000000   180.000000     0.707107     0.707107    -0.000000     0.000000     0.000000     0.000000
   18    -1.000000    90.000000     1.000000     0.000000     0.000000     0.000000     0.000000     0.000000
   19     1.000000   120.000000     0.577350    -0.577350    -0.577350     0.000000     0.000000     0.000000
   20     1.000000   180.000000     0.000000    -1.000000     0.000000     0.000000     0.000000     0.000000
   21     1.000000   120.000000     0.577350     0.577350    -0.577350     0.000000     0.000000     0.000000
   22    -1.000000   180.000000    -0.000000    -0.707107     0.707107     0.000000     0.000000     0.000000
   23    -1.000000   180.000000     0.707107    -0.707107    -0.000000     0.000000     0.000000     0.000000
   24    -1.000000   180.000000    -0.707107     0.000000     0.707107     0.000000     0.000000     0.000000
   25    -1.000000     0.000001     1.000000     0.000000     0.000000     0.250000     0.250000     0.250000
   26    -1.000000   120.000000    -0.577350    -0.577350    -0.577350     0.250000     0.250000     0.250000
   27    -1.000000   120.000000     0.577350     0.577350     0.577350     0.250000     0.250000     0.250000
   28     1.000000    90.000000    -0.000000    -0.000000    -1.000000     0.250000     0.250000     0.250000
   29     1.000000   180.000000    -0.000000     0.707107     0.707107     0.250000     0.250000     0.250000
   30     1.000000    90.000000    -0.000000     1.000000    -0.000000     0.250000     0.250000     0.250000
   31    -1.000000   180.000000     0.000000     0.000000    -1.000000     0.250000     0.250000     0.250000
   32    -1.000000   120.000000    -0.577350     0.577350     0.577350     0.250000     0.250000     0.250000
   33    -1.000000   120.000000    -0.577350     0.577350    -0.577350     0.250000     0.250000     0.250000
   34     1.000000    90.000000     0.000000     0.000000     1.000000     0.250000     0.250000     0.250000
   35     1.000000    90.000000    -1.000000     0.000000    -0.000000     0.250000     0.250000     0.250000
   36     1.000000   180.000000     0.707107     0.000000     0.707107     0.250000     0.250000     0.250000
   37    -1.000000   120.000000     0.577350    -0.577350     0.577350     0.250000     0.250000     0.250000
   38    -1.000000   120.000000    -0.577350    -0.577350     0.577350     0.250000     0.250000     0.250000
   39    -1.000000   180.000000     1.000000     0.000000     0.000000     0.250000     0.250000     0.250000
   40     1.000000    90.000000     0.000000    -1.000000     0.000000     0.250000     0.250000     0.250000
   41     1.000000   180.000000     0.707107     0.707107    -0.000000     0.250000     0.250000     0.250000
   42     1.000000    90.000000     1.000000     0.000000     0.000000     0.250000     0.250000     0.250000
   43    -1.000000   120.000000     0.577350    -0.577350    -0.577350     0.250000     0.250000     0.250000
   44    -1.000000   180.000000     0.000000    -1.000000     0.000000     0.250000     0.250000     0.250000
   45    -1.000000   120.000000     0.577350     0.577350    -0.577350     0.250000     0.250000     0.250000
   46     1.000000   180.000000    -0.000000    -0.707107     0.707107     0.250000     0.250000     0.250000
   47     1.000000   180.000000     0.707107    -0.707107    -0.000000     0.250000     0.250000     0.250000
   48     1.000000   180.000000    -0.707107     0.000000     0.707107     0.250000     0.250000     0.250000

 Subroutine IBZKPT returns following result:

 Found     56 irreducible k-points:

 Following reciprocal coordinates:
            Coordinates               Weight
  0.000000  0.000000  0.000000      1.000000
  0.090909 -0.000000  0.000000      8.000000
  0.181818 -0.000000  0.000000      8.000000
  0.272727  0.000000  0.000000      8.000000
  0.363636 -0.000000  0.000000      8.000000
  0.454545  0.000000  0.000000      8.000000
  0.090909  0.090909  0.000000      6.000000
  0.181818  0.090909  0.000000     24.000000
  0.272727  0.090909  0.000000     24.000000
  0.363636  0.090909  0.000000     24.000000
  0.454545  0.090909  0.000000     24.000000
 -0.454545  0.090909 -0.000000     24.000000
 -0.363636  0.090909 -0.000000     24.000000
 -0.272727  0.090909 -0.000000     24.000000
 -0.181818  0.090909 -0.000000     24.000000
 -0.090909  0.090909 -0.000000     12.000000
  0.181818  0.181818  0.000000      6.000000
  0.272727  0.181818  0.000000     24.000000
  0.363636  0.181818  0.000000     24.000000
  0.454545  0.181818  0.000000     24.000000
 -0.454545  0.181818  0.000000     24.000000
 -0.363636  0.181818 -0.000000     24.000000
 -0.272727  0.181818 -0.000000     24.000000
 -0.181818  0.181818 -0.000000     12.000000
  0.272727  0.272727  0.000000      6.000000
  0.363636  0.272727  0.000000     24.000000
  0.454545  0.272727  0.000000     24.000000
 -0.454545  0.272727  0.000000     24.000000
 -0.363636  0.272727  0.000000     24.000000
 -0.272727  0.272727 -0.000000     12.000000
  0.363636  0.363636  0.000000      6.000000
  0.454545  0.363636  0.000000     24.000000
 -0.454545  0.363636 -0.000000     24.000000
 -0.363636  0.363636 -0.000000     12.000000
  0.454545  0.454545  0.000000      6.000000
 -0.454545  0.454545 -0.000000     12.000000
  0.272727  0.181818  0.090909     24.000000
  0.363636  0.181818  0.090909     48.000000
  0.454545  0.181818  0.090909     48.000000
 -0.454545  0.181818  0.090909     48.000000
  0.363636  0.272727  0.090909     24.000000
  0.454545  0.272727  0.090909     48.000000
 -0.454545  0.272727  0.090909     48.000000
 -0.363636  0.272727  0.090909     48.000000
 -0.272727  0.272727  0.090909     48.000000
 -0.181818  0.272727  0.090909     24.000000
  0.454545  0.363636  0.090909     24.000000
 -0.454545  0.363636  0.090909     48.000000
 -0.363636  0.363636  0.090909     48.000000
 -0.272727  0.363636  0.090909     24.000000
 -0.454545  0.454545  0.090909     24.000000
 -0.363636  0.454545  0.090909     24.000000
 -0.454545  0.363636  0.181818     24.000000
 -0.363636  0.363636  0.181818     48.000000
 -0.363636  0.454545  0.181818     24.000000
 -0.272727  0.454545  0.181818     24.000000

 Following cartesian coordinates:
            Coordinates               Weight
  0.000000  0.000000  0.000000      1.000000
 -0.016742  0.016742  0.016742      8.000000
 -0.033484  0.033484  0.033484      8.000000
 -0.050226  0.050226  0.050226      8.000000
 -0.066968  0.066968  0.066968      8.000000
 -0.083710  0.083710  0.083710      8.000000
  0.000000  0.000000  0.033484      6.000000
 -0.016742  0.016742  0.050226     24.000000
 -0.033484  0.033484  0.066968     24.000000
 -0.050226  0.050226  0.083710     24.000000
[...]
     2.715000000  2.715000000  0.000000000     0.184162063  0.184162063 -0.184162063

  length of vectors
     3.839589822  3.839589822  3.839589822     0.318978049  0.318978049  0.318978049

 old parameters found on file WAVECAR:
  energy-cutoff  :      150.00
  volume of cell :       40.03
      direct lattice vectors                 reciprocal lattice vectors
     0.000000000  2.715000000  2.715000000    -0.184162063  0.184162063  0.184162063
     2.715000000  0.000000000  2.715000000     0.184162063 -0.184162063  0.184162063
     2.715000000  2.715000000  0.000000000     0.184162063  0.184162063 -0.184162063

  length of vectors

 k-points in units of 2pi/SCALE and weight: Automatic kpoint scheme
   0.00000000  0.00000000  0.00000000       0.001
  -0.01674201  0.01674201  0.01674201       0.006
  -0.03348401  0.03348401  0.03348401       0.006
  -0.05022602  0.05022602  0.05022602       0.006
  -0.06696802  0.06696802  0.06696802       0.006
  -0.08371003  0.08371003  0.08371003       0.006
   0.00000000  0.00000000  0.03348401       0.005
  -0.01674201  0.01674201  0.05022602       0.018
  -0.03348401  0.03348401  0.06696802       0.018
  -0.05022602  0.05022602  0.08371003       0.018
  -0.06696802  0.06696802  0.10045203       0.018
   0.10045203 -0.10045203 -0.06696802       0.018
   0.08371003 -0.08371003 -0.05022602       0.018
   0.06696802 -0.06696802 -0.03348401       0.018
   0.05022602 -0.05022602 -0.01674201       0.018
   0.03348401 -0.03348401  0.00000000       0.009
   0.00000000  0.00000000  0.06696802       0.005
  -0.01674201  0.01674201  0.08371003       0.018
  -0.03348401  0.03348401  0.10045203       0.018
  -0.05022602  0.05022602  0.11719404       0.018
   0.11719404 -0.11719404 -0.05022602       0.018
   0.10045203 -0.10045203 -0.03348401       0.018
   0.08371003 -0.08371003 -0.01674201       0.018
   0.06696802 -0.06696802  0.00000000       0.009
   0.00000000 -0.00000000  0.10045203       0.005
  -0.01674201  0.01674201  0.11719404       0.018
  -0.03348401  0.03348401  0.13393605       0.018
   0.13393605 -0.13393605 -0.03348401       0.018
   0.11719404 -0.11719404 -0.01674201       0.018
   0.10045203 -0.10045203 -0.00000000       0.009
   0.00000000  0.00000000  0.13393605       0.005
  -0.01674201  0.01674201  0.15067805       0.018
   0.15067805 -0.15067805 -0.01674201       0.018
   0.13393605 -0.13393605  0.00000000       0.009
   0.00000000  0.00000000  0.16742006       0.005
   0.16742006 -0.16742006 -0.00000000       0.009
   0.00000000  0.03348401  0.06696802       0.018
  -0.01674201  0.05022602  0.08371003       0.036
  -0.03348401  0.06696802  0.10045203       0.036
   0.13393605 -0.10045203 -0.06696802       0.036
   0.00000000  0.03348401  0.10045203       0.018
  -0.01674201  0.05022602  0.11719404       0.036
   0.15067805 -0.11719404 -0.05022602       0.036
   0.13393605 -0.10045203 -0.03348401       0.036
   0.11719404 -0.08371003 -0.01674201       0.036
   0.10045203 -0.06696802  0.00000000       0.018
   0.00000000  0.03348401  0.13393605       0.018
   0.16742006 -0.13393605 -0.03348401       0.036
   0.15067805 -0.11719404 -0.01674201       0.036
   0.13393605 -0.10045203  0.00000000       0.018
   0.18416206 -0.15067805 -0.01674201       0.018
   0.16742006 -0.13393605  0.00000000       0.018
   0.18416206 -0.11719404 -0.05022602       0.018
   0.16742006 -0.10045203 -0.03348401       0.036
   0.18416206 -0.11719404 -0.01674201       0.018
   0.16742006 -0.10045203  0.00000000       0.018

 k-points in reciprocal lattice and weights: Automatic kpoint scheme
   0.00000000  0.00000000  0.00000000       0.001
   0.09090909 -0.00000000  0.00000000       0.006
   0.18181818 -0.00000000  0.00000000       0.006
   0.27272727  0.00000000  0.00000000       0.006
   0.36363636 -0.00000000  0.00000000       0.006
   0.45454545  0.00000000  0.00000000       0.006
   0.09090909  0.09090909  0.00000000       0.005
   0.18181818  0.09090909  0.00000000       0.018
   0.27272727  0.09090909  0.00000000       0.018
   0.36363636  0.09090909  0.00000000       0.018
   0.45454545  0.09090909  0.00000000       0.018
  -0.45454545  0.09090909 -0.00000000       0.018
  -0.36363636  0.09090909 -0.00000000       0.018
  -0.27272727  0.09090909 -0.00000000       0.018
  -0.18181818  0.09090909 -0.00000000       0.018
  -0.09090909  0.09090909 -0.00000000       0.009
   0.18181818  0.18181818  0.00000000       0.005
   0.27272727  0.18181818  0.00000000       0.018
   0.36363636  0.18181818  0.00000000       0.018
   0.45454545  0.18181818  0.00000000       0.018
  -0.45454545  0.18181818  0.00000000       0.018
  -0.36363636  0.18181818 -0.00000000       0.018
  -0.27272727  0.18181818 -0.00000000       0.018
  -0.18181818  0.18181818 -0.00000000       0.009
   0.27272727  0.27272727  0.00000000       0.005
   0.36363636  0.27272727  0.00000000       0.018
   0.45454545  0.27272727  0.00000000       0.018
  -0.45454545  0.27272727  0.00000000       0.018
  -0.36363636  0.27272727  0.00000000       0.018
  -0.27272727  0.27272727 -0.00000000       0.009
   0.36363636  0.36363636  0.00000000       0.005
   0.45454545  0.36363636  0.00000000       0.018
  -0.45454545  0.36363636 -0.00000000       0.018
  -0.36363636  0.36363636 -0.00000000       0.009
   0.45454545  0.45454545  0.00000000       0.005
  -0.45454545  0.45454545 -0.00000000       0.009
   0.27272727  0.18181818  0.09090909       0.018
   0.36363636  0.18181818  0.09090909       0.036
   0.45454545  0.18181818  0.09090909       0.036
  -0.45454545  0.18181818  0.09090909       0.036
   0.36363636  0.27272727  0.09090909       0.018
   0.45454545  0.27272727  0.09090909       0.036
  -0.45454545  0.27272727  0.09090909       0.036
  -0.36363636  0.27272727  0.09090909       0.036
  -0.27272727  0.27272727  0.09090909       0.036
  -0.18181818  0.27272727  0.09090909       0.018
   0.45454545  0.36363636  0.09090909       0.018
  -0.45454545  0.36363636  0.09090909       0.036
  -0.36363636  0.36363636  0.09090909       0.036
  -0.27272727  0.36363636  0.09090909       0.018
  -0.45454545  0.45454545  0.09090909       0.018
  -0.36363636  0.45454545  0.09090909       0.018
  -0.45454545  0.36363636  0.18181818       0.018
  -0.36363636  0.36363636  0.18181818       0.036
  -0.36363636  0.45454545  0.18181818       0.018
  -0.27272727  0.45454545  0.18181818       0.018

 position of ions in fractional coordinates (direct lattice)
   0.50000000  0.50000000  0.50000000
   0.75000000  0.75000000  0.75000000

 position of ions in cartesian coordinates  (Angst):
   2.71500000  2.71500000  2.71500000
   4.07250000  4.07250000  4.07250000

 k-point  1 :   0.0000 0.0000 0.0000  plane waves:     169
 k-point  2 :   0.0909-0.0000 0.0000  plane waves:     169
 k-point  3 :   0.1818-0.0000 0.0000  plane waves:     168
 k-point  4 :   0.2727 0.0000 0.0000  plane waves:     162
 k-point  5 :   0.3636-0.0000 0.0000  plane waves:     162
 k-point  6 :   0.4545 0.0000 0.0000  plane waves:     168
 k-point  7 :   0.0909 0.0909 0.0000  plane waves:     169
 k-point  8 :   0.1818 0.0909 0.0000  plane waves:     166
 k-point  9 :   0.2727 0.0909 0.0000  plane waves:     165
 k-point 10 :   0.3636 0.0909 0.0000  plane waves:     160
 k-point 11 :   0.4545 0.0909 0.0000  plane waves:     169
 k-point 12 :  -0.4545 0.0909-0.0000  plane waves:     165
 k-point 13 :  -0.3636 0.0909-0.0000  plane waves:     167
 k-point 14 :  -0.2727 0.0909-0.0000  plane waves:     163
 k-point 15 :  -0.1818 0.0909-0.0000  plane waves:     164
 k-point 16 :  -0.0909 0.0909-0.0000  plane waves:     170
 k-point 17 :   0.1818 0.1818 0.0000  plane waves:     169
 k-point 18 :   0.2727 0.1818 0.0000  plane waves:     166
 k-point 19 :   0.3636 0.1818 0.0000  plane waves:     163
 k-point 20 :   0.4545 0.1818 0.0000  plane waves:     163
 k-point 21 :  -0.4545 0.1818 0.0000  plane waves:     168
 k-point 22 :  -0.3636 0.1818-0.0000  plane waves:     164
 k-point 23 :  -0.2727 0.1818-0.0000  plane waves:     162
 k-point 24 :  -0.1818 0.1818-0.0000  plane waves:     164
 k-point 25 :   0.2727 0.2727 0.0000  plane waves:     165
 k-point 26 :   0.3636 0.2727 0.0000  plane waves:     163
 k-point 27 :   0.4545 0.2727 0.0000  plane waves:     167
 k-point 28 :  -0.4545 0.2727 0.0000  plane waves:     171
 k-point 29 :  -0.3636 0.2727 0.0000  plane waves:     171
 k-point 30 :  -0.2727 0.2727-0.0000  plane waves:     168
 k-point 31 :   0.3636 0.3636 0.0000  plane waves:     170
 k-point 32 :   0.4545 0.3636 0.0000  plane waves:     168
 k-point 33 :  -0.4545 0.3636-0.0000  plane waves:     174
 k-point 34 :  -0.3636 0.3636-0.0000  plane waves:     170
 k-point 35 :   0.4545 0.4545 0.0000  plane waves:     162
 k-point 36 :  -0.4545 0.4545-0.0000  plane waves:     178
 k-point 37 :   0.2727 0.1818 0.0909  plane waves:     164
 k-point 38 :   0.3636 0.1818 0.0909  plane waves:     166
 k-point 39 :   0.4545 0.1818 0.0909  plane waves:     162
 k-point 40 :  -0.4545 0.1818 0.0909  plane waves:     167
 k-point 41 :   0.3636 0.2727 0.0909  plane waves:     162
 k-point 42 :   0.4545 0.2727 0.0909  plane waves:     168
 k-point 43 :  -0.4545 0.2727 0.0909  plane waves:     166
 k-point 44 :  -0.3636 0.2727 0.0909  plane waves:     170
 k-point 45 :  -0.2727 0.2727 0.0909  plane waves:     168
 k-point 46 :  -0.1818 0.2727 0.0909  plane waves:     166
 k-point 47 :   0.4545 0.3636 0.0909  plane waves:     172
 k-point 48 :  -0.4545 0.3636 0.0909  plane waves:     169
 k-point 49 :  -0.3636 0.3636 0.0909  plane waves:     169
 k-point 50 :  -0.2727 0.3636 0.0909  plane waves:     169
 k-point 51 :  -0.4545 0.4545 0.0909  plane waves:     171
 k-point 52 :  -0.3636 0.4545 0.0909  plane waves:     168
 k-point 53 :  -0.4545 0.3636 0.1818  plane waves:     167
 k-point 54 :  -0.3636 0.3636 0.1818  plane waves:     169
 k-point 55 :  -0.3636 0.4545 0.1818  plane waves:     166
 k-point 56 :  -0.2727 0.4545 0.1818  plane waves:     169

 maximum and minimum number of plane-waves per node :       178      160

 maximum number of plane-waves:       178
 maximum index in each direction:
   IXMAX=    4   IYMAX=    3   IZMAX=    3
   IXMIN=   -4   IYMIN=   -4   IZMIN=   -3

 serial   3D FFT for wavefunctions
 parallel 3D FFT for charge:
    minimum data exchange during FFTs selected (reduces bandwidth)

 Broyden mixing: mesh for mixing (old mesh)
   NGX =  7   NGY =  7   NGZ =  7
  (NGX  = 24   NGY  = 24   NGZ  = 24)
  gives a total of    343 points

 charge density for first step will be calculated from the start-wavefunctions

 Maximum index for augmentation-charges          204 (set IRDMAX)

 initial charge from wavefunction
 First call to EWALD:  gamma=   0.518
 Maximum number of real-space cells 3x 3x 3
 Maximum number of reciprocal cells 3x 3x 3

--------------------------------------- Iteration      1(   1)  ---------------------------------------

 eigenvalue-minimisations  :   456
 total energy-change (2. order) :-0.1074474E+02  (-0.2496654E-05)
 number of electron       8.0000042 magnetization
 augmentation part       -0.4534857 magnetization

 Broyden mixing:
  rms(total) = 0.13377E-03    rms(broyden)= 0.13310E-03
  rms(prec ) = 0.35339E-03
  weight for this iteration     100.00

 Free energy of the ion-electron system (eV)
  alpha Z        PSCENC =         3.36414203
  Ewald energy   TEWEN  =      -228.56352493
  -Hartree energ DENC   =       -14.88332910
  -exchange      EXHF   =         0.00000000
  -V(xc)+E(xc)   XCENC  =       -17.92420565
  PAW double counting   =        76.67627394      -41.72796085
  entropy T*S    EENTRO =        -0.00009356
  eigenvalues    EBANDS =         6.22212186
  atomic energy  EATOM  =       206.09183643
  Solvation  Ediel_sol  =         0.00000000
  free energy    TOTEN  =       -10.74473984 eV

  energy without entropy =      -10.74464628  energy(sigma->0) =      -10.74469306

--------------------------------------- Iteration      1(   2)  ---------------------------------------

 eigenvalue-minimisations  :   448
 total energy-change (2. order) :-0.1399208E-06  (-0.8237221E-07)
 number of electron       8.0000042 magnetization
 augmentation part       -0.4534857 magnetization

 Free energy of the ion-electron system (eV)
  alpha Z        PSCENC =         3.36414203
  Ewald energy   TEWEN  =      -228.56352493
  -Hartree energ DENC   =       -14.88325880
  -exchange      EXHF   =         0.00000000
  -V(xc)+E(xc)   XCENC  =       -17.92418530
  PAW double counting   =        76.67505997      -41.72669781
  entropy T*S    EENTRO =        -0.00009346
  eigenvalues    EBANDS =         6.22198191
  atomic energy  EATOM  =       206.09183643
  Solvation  Ediel_sol  =         0.00000000
  free energy    TOTEN  =       -10.74473998 eV

  energy without entropy =      -10.74464651  energy(sigma->0) =      -10.74469324

 average (electrostatic) potential at core
  the test charge radii are     0.9892
  (the norm of the test charge is              1.0000)
       1 -83.2629       2 -83.2629

 E-fermi :   6.1679     XC(G=0):  -9.4138     alpha+bet :-11.9845

 k-point     1 :       0.0000    0.0000    0.0000
  band No.  band energies     occupation
      1      -6.1349      2.00000
      2       5.8767      1.96048
      3       5.8767      1.96048
      4       5.8770      1.96028
      5       8.4550      0.00000
      6       8.4550      0.00000
      7       8.4552      0.00000
      8       9.1978      0.00000

[...]

 k-point    56 :      -0.2727    0.4545    0.1818
  band No.  band energies     occupation
      1      -2.2010      2.00000
      2      -1.4639      2.00000
      3       1.7157      2.00000
      4       2.4195      2.00000
      5       9.2609      0.00000
      6      10.5572      0.00000
      7      11.3147      0.00000
      8      11.3165      0.00000

 soft charge-density along one line, spin component           1
         0         1         2         3         4         5         6         7         8         9
 total charge-density along one line

------------------------ aborting loop because EDIFF is reached ----------------------------------------

  FORCE on cell =-STRESS in cart. coord.  units (eV):
  Direction    XX          YY          ZZ          XY          YZ          ZX
  Alpha Z     3.36414     3.36414     3.36414
  Ewald     -76.18788   -76.18788   -76.18788    -0.00000    -0.00000     0.00000
  Hartree     4.96112     4.96112     4.96112     0.00000     0.00000     0.00000
  E(xc)     -25.39021   -25.39021   -25.39021    -0.00017    -0.00017    -0.00017
  Local     -29.42081   -29.42081   -29.42080     0.00023     0.00024     0.00024
  n-local    79.20673    80.56153    74.98065     2.20666    -1.27968     0.55712
  augment   -11.52070   -11.52070   -11.52070    -0.00017    -0.00017    -0.00017
  Kinetic    58.58681    55.85786    54.83797     3.56983    -0.64327     1.03415
  Fock        0.00000     0.00000     0.00000     0.00000     0.00000     0.00000
  Total       0.48285     0.48285     0.48285    -0.00000     0.00000     0.00000
  in kB      19.32794    19.32794    19.32794    -0.00000     0.00000     0.00000

 VOLUME and BASIS-vectors are now :
  energy-cutoff  :      150.00
  volume of cell :       40.03
      direct lattice vectors                 reciprocal lattice vectors
     0.000000000  2.715000000  2.715000000    -0.184162063  0.184162063  0.184162063
     2.715000000  0.000000000  2.715000000     0.184162063 -0.184162063  0.184162063
     2.715000000  2.715000000  0.000000000     0.184162063  0.184162063 -0.184162063

  length of vectors
     3.839589822  3.839589822  3.839589822     0.318978049  0.318978049  0.318978049

 FORCES acting on ions
    electron-ion (+dipol)            ewald-force                    non-local-force                 convergence-correction
   0.659E-05 0.659E-05 0.649E-05   -.476E-15 -.149E-14 0.391E-14   -.277E-16 -.624E-16 -.519E-16   0.682E-07 0.682E-07 0.682E-07
   -.659E-05 -.659E-05 -.649E-05   0.623E-15 0.106E-14 -.375E-14   0.197E-16 0.752E-16 0.602E-16   -.682E-07 -.682E-07 -.682E-07
   -.115E-12 -.561E-13 -.324E-13   0.147E-15 -.426E-15 0.164E-15   -.801E-17 0.128E-16 0.827E-17   0.150E-14 0.159E-14 0.471E-15

 POSITION                                       TOTAL-FORCE (eV/Angst)
      2.71500      2.71500      2.71500        -0.000000     -0.000000      0.000000
      4.07250      4.07250      4.07250         0.000000      0.000000     -0.000000
    total drift:                               -0.000000     -0.000000     -0.000000

  FREE ENERGIE OF THE ION-ELECTRON SYSTEM (eV)
  free  energy   TOTEN  =       -10.74473998 eV

  energy  without entropy=      -10.74464651  energy(sigma->0) =      -10.74469324

 reached required accuracy - stopping structural energy minimisation
 writing wavefunctions