 vasp.5.4.4.18Apr17-6-g9f103f2a35 (build Dec 09 2018 21:25:21) complex

 executed on IFC18.0.1.163_CrayMP date 2019.03.19  13:04:48

 INCAR:
 POTCAR:   PAW_PBE Si 05Jan2001

 POTCAR:   PAW_PBE Si 05Jan2001
   VRHFIN =Si: s2p2

   TITEL  = PAW_PBE Si 05Jan2001
   POMASS =   28.085; ZVAL   =    4.000    mass and valenz
   ENMAX  =  245.345; ENMIN  =  184.009 eV
   QCUT   =   -4.246; QGAM   =    8.493    optimization parameters

   Description
     l     E      TYP  RCUT    TYP  RCUT
     0   .000     23  1.900
     0   .000     23  1.900
     1   .000     23  1.900
     1   .000     23  1.900
     2   .000      7  1.900

 PAW_PBE Si 05Jan2001                   :

 POSCAR: Si2
  positions in direct lattice
 exchange correlation table for  LEXCH =        8
   RHO(1)=    0.500       N(1)  =     2000
   RHO(2)=  100.500       N(2)  =     4000

 ion  position               nearest neighbor table
   1  0.250  0.750  0.500-   2 2.53   2 2.53   2 2.53   2 2.53   2 3.11   2 3.11   2 3.11   2 3.11

   2  0.000  0.000  0.000-   1 2.53   1 2.53   1 2.53   1 2.53   1 3.11   1 3.11   1 3.11   1 3.11

  LATTYP: Found a body centered tetragonal cell.
 ALAT       =     4.9000000000
 C/A-ratio  =     0.5200000000

  Lattice vectors:

 A1 = (  -2.4500000000,   2.4500000000,   1.2740000000)
 A2 = (   2.4500000000,  -2.4500000000,   1.2740000000)
 A3 = (   2.4500000000,   2.4500000000,  -1.2740000000)

Analysis of symmetry for initial positions (statically):
 Subroutine PRICEL returns:
 Original cell was already a primitive cell.

 Routine SETGRP: Setting up the symmetry group for a
 body centered tetragonal supercell.

 Subroutine GETGRP returns: Found 16 space group operations
 (whereof  8 operations were pure point group operations)
 out of a pool of 16 trial point group operations.

The static configuration has the point symmetry D_2d.
 The point group associated with its full space group is D_4h.

Analysis of symmetry for dynamics (positions and initial velocities):
 Subroutine PRICEL returns:
 Original cell was already a primitive cell.

 Routine SETGRP: Setting up the symmetry group for a
 body centered tetragonal supercell.

 Subroutine GETGRP returns: Found 16 space group operations
 (whereof  8 operations were pure point group operations)
 out of a pool of 16 trial point group operations.

The dynamic configuration has the point symmetry D_2d.
 The point group associated with its full space group is D_4h.

 Subroutine INISYM returns: Found 16 space group operations
 (whereof  8 operations are pure point group operations),
 and found     1 'primitive' translations

 KPOINTS: Automatic kpoint scheme

Automatic generation of k-mesh.
Space group operators:
 irot       det(A)        alpha          n_x          n_y          n_z        tau_x        tau_y        tau_z
    1     1.000000     0.000000     1.000000     0.000000     0.000000     0.000000     0.000000     0.000000
    2    -1.000000    90.000000    -0.000000    -0.000000    -1.000000     0.000000     0.000000     0.000000
    3     1.000000   180.000000    -0.000000    -0.000000    -1.000000     0.000000     0.000000     0.000000
    4    -1.000000    90.000000    -0.000000     0.000000     1.000000     0.000000     0.000000     0.000000
    5    -1.000000   180.000000     0.000000    -1.000000     0.000000     0.000000     0.000000     0.000000
    6     1.000000   180.000000     0.707107     0.707107    -0.000000     0.000000     0.000000     0.000000
    7    -1.000000   180.000000     1.000000     0.000000     0.000000     0.000000     0.000000     0.000000
    8     1.000000   180.000000     0.707107    -0.707107     0.000000     0.000000     0.000000     0.000000
    9    -1.000000     0.000000     1.000000     0.000000     0.000000     0.250000     0.750000     0.500000
   10     1.000000    90.000000    -0.000000    -0.000000    -1.000000     0.250000     0.750000     0.500000
   11    -1.000000   180.000000    -0.000000    -0.000000    -1.000000     0.250000     0.750000     0.500000
   12     1.000000    90.000000    -0.000000     0.000000     1.000000     0.250000     0.750000     0.500000
   13     1.000000   180.000000     0.000000    -1.000000     0.000000     0.250000     0.750000     0.500000
   14    -1.000000   180.000000     0.707107     0.707107    -0.000000     0.250000     0.750000     0.500000
   15     1.000000   180.000000     1.000000     0.000000     0.000000     0.250000     0.750000     0.500000
   16    -1.000000   180.000000     0.707107    -0.707107     0.000000     0.250000     0.750000     0.500000

 Subroutine IBZKPT returns following result:

 Found     56 irreducible k-points:

 Following reciprocal coordinates:
            Coordinates               Weight
  0.062500  0.062500  0.062500    128.000000
  0.187500  0.062500  0.062500    256.000000
  0.312500  0.062500  0.062500    256.000000
  0.437500  0.062500  0.062500    128.000000
 -0.062500  0.062500  0.062500     64.000000
  0.187500  0.187500  0.062500    128.000000
  0.312500  0.187500  0.062500    256.000000
  0.437500  0.187500  0.062500    256.000000
 -0.437500  0.187500  0.062500    256.000000
 -0.312500  0.187500  0.062500    128.000000
 -0.187500  0.187500  0.062500    128.000000
 -0.062500  0.187500  0.062500    128.000000
  0.312500  0.312500  0.062500    128.000000
  0.437500  0.312500  0.062500    256.000000
 -0.437500  0.312500  0.062500    128.000000
 -0.312500  0.312500  0.062500    128.000000
 -0.187500  0.312500  0.062500    256.000000
 -0.062500  0.312500  0.062500    128.000000
  0.437500  0.437500  0.062500     64.000000
 -0.437500  0.437500  0.062500    128.000000
 -0.312500  0.437500  0.062500    256.000000
 -0.187500  0.437500  0.062500    256.000000
 -0.062500  0.437500  0.062500    128.000000
 -0.437500 -0.437500  0.062500    128.000000
 -0.312500 -0.437500  0.062500    256.000000
 -0.187500 -0.437500  0.062500    256.000000
 -0.062500 -0.437500  0.062500    128.000000
 -0.312500 -0.312500  0.062500    128.000000
 -0.187500 -0.312500  0.062500    256.000000
 -0.062500 -0.312500  0.062500    128.000000
 -0.187500 -0.187500  0.062500    128.000000
 -0.062500 -0.187500  0.062500    128.000000
 -0.062500 -0.062500  0.062500     32.000000
  0.187500  0.187500  0.187500    128.000000
  0.312500  0.187500  0.187500    128.000000
 -0.187500  0.187500  0.187500     64.000000
  0.312500  0.312500  0.187500     64.000000
 -0.312500  0.312500  0.187500    128.000000
 -0.187500  0.312500  0.187500    128.000000
 -0.437500  0.437500  0.187500    128.000000
 -0.312500  0.437500  0.187500    256.000000
 -0.187500  0.437500  0.187500    128.000000
 -0.437500 -0.437500  0.187500    128.000000
 -0.312500 -0.437500  0.187500    256.000000
 -0.187500 -0.437500  0.187500    128.000000
 -0.312500 -0.312500  0.187500    128.000000
 -0.187500 -0.312500  0.187500    128.000000
 -0.187500 -0.187500  0.187500     32.000000
 -0.312500  0.312500  0.312500     64.000000
 -0.437500  0.437500  0.312500    128.000000
 -0.312500  0.437500  0.312500    128.000000
 -0.437500 -0.437500  0.312500    128.000000
 -0.312500 -0.437500  0.312500    128.000000
 -0.312500 -0.312500  0.312500     32.000000
 -0.437500  0.437500  0.437500     64.000000
 -0.437500 -0.437500  0.437500     32.000000

 Following cartesian coordinates:
            Coordinates               Weight
  0.025510  0.025510  0.049058    128.000000
  0.025510  0.051020  0.098116    256.000000
  0.025510  0.076531  0.147174    256.000000
  0.025510  0.102041  0.196232    128.000000
  0.025510  0.000000  0.000000     64.000000
  0.051020  0.051020  0.147174    128.000000
  0.051020  0.076531  0.196232    256.000000
  0.051020  0.102041  0.245290    256.000000
  0.051020 -0.076531 -0.098116    256.000000
  0.051020 -0.051020 -0.049058    128.000000
  0.051020 -0.025510  0.000000    128.000000
  0.051020  0.000000  0.049058    128.000000
  0.076531  0.076531  0.245290    128.000000
  0.076531  0.102041  0.294349    256.000000
  0.076531 -0.076531 -0.049058    128.000000
  0.076531 -0.051020  0.000000    128.000000
  0.076531 -0.025510  0.049058    256.000000
  0.076531  0.000000  0.098116    128.000000
  0.102041  0.102041  0.343407     64.000000
  0.102041 -0.076531  0.000000    128.000000
  0.102041 -0.051020  0.049058    256.000000
  0.102041 -0.025510  0.098116    256.000000
  0.102041  0.000000  0.147174    128.000000
 -0.076531 -0.076531 -0.343407    128.000000
 -0.076531 -0.051020 -0.294349    256.000000
 -0.076531 -0.025510 -0.245290    256.000000
 -0.076531 -0.000000 -0.196232    128.000000
 -0.051020 -0.051020 -0.245290    128.000000
 -0.051020 -0.025510 -0.196232    256.000000
 -0.051020 -0.000000 -0.147174    128.000000
 -0.025510 -0.025510 -0.147174    128.000000
 -0.025510  0.000000 -0.098116    128.000000
 -0.000000  0.000000 -0.049058     32.000000
  0.076531  0.076531  0.147174    128.000000
  0.076531  0.102041  0.196232    128.000000
  0.076531  0.000000  0.000000     64.000000
  0.102041  0.102041  0.245290     64.000000
  0.102041 -0.025510 -0.000000    128.000000
  0.102041  0.000000  0.049058    128.000000
  0.127551 -0.051020  0.000000    128.000000
  0.127551 -0.025510  0.049058    256.000000
  0.127551  0.000000  0.098116    128.000000
 -0.051020 -0.051020 -0.343407    128.000000
 -0.051020 -0.025510 -0.294349    256.000000
 -0.051020  0.000000 -0.245290    128.000000
 -0.025510 -0.025510 -0.245290    128.000000
 -0.025510 -0.000000 -0.196232    128.000000
  0.000000  0.000000 -0.147174     32.000000
  0.127551  0.000000  0.000000     64.000000
  0.153061 -0.025510  0.000000    128.000000
  0.153061  0.000000  0.049058    128.000000
 -0.025510 -0.025510 -0.343407    128.000000
 -0.025510 -0.000000 -0.294349    128.000000
 -0.000000  0.000000 -0.245290     32.000000
  0.178571  0.000000  0.000000     64.000000
 -0.000000  0.000000 -0.343407     32.000000

 SYSTEM =  unknown system
 POSCAR =  Si2

 Startparameter for this run:
   NWRITE =      2    write-flag & timer
   PREC   = normal    normal or accurate (medium, high low for compatibility)
   ISTART =      1    job   : 0-new  1-cont  2-samecut
   ICHARG =      0    charge: 1-file 2-atom 10-const
   ISPIN  =      1    spin polarized calculation?
   LNONCOLLINEAR =      F non collinear calculations
   LSORBIT =      F    spin-orbit coupling
   INIWAV =      1    electr: 0-lowe 1-rand  2-diag
   LASPH  =      F    aspherical Exc in radial PAW
   METAGGA=      F    non-selfconsistent MetaGGA calc.

 Electronic Relaxation 1
   ENCUT  =  150.0 eV  11.02 Ry    3.32 a.u.   3.69  3.69  3.69*2*pi/ulx,y,z
   ENINI  =  150.0     initial cutoff
   ENAUG  =  322.1 eV  augmentation charge cutoff
   NELM   =     60;   NELMIN=  2; NELMDL=  0     # of ELM steps
   EDIFF  = 0.4E-03   stopping-criterion for ELM
   LREAL  =      F    real-space projection
   NLSPLINE    = F    spline interpolate recip. space projectors
   LCOMPAT=      F    compatible to vasp.4.4
   GGA_COMPAT  = T    GGA compatible to vasp.4.4-vasp.4.6
   LMAXPAW     = -100 max onsite density
   LMAXMIX     =    2 max onsite mixed and CHGCAR
   VOSKOWN=      0    Vosko Wilk Nusair interpolation
   ROPT   =    0.00000
 Ionic relaxation
   EDIFFG = -.1E-01   stopping-criterion for IOM
[...]
     2.450000000  2.450000000 -1.274000000     0.204081633  0.204081633 -0.000000000

  length of vectors
     3.691622408  3.691622408  3.691622408     0.442354876  0.442354876  0.288615013

 old parameters found on file WAVECAR:
  energy-cutoff  :      150.00
  volume of cell :       30.59
      direct lattice vectors                 reciprocal lattice vectors
    -2.450000000  2.450000000  1.274000000     0.000000000  0.204081633  0.392464678
     2.450000000 -2.450000000  1.274000000     0.204081633  0.000000000  0.392464678
     2.450000000  2.450000000 -1.274000000     0.204081633  0.204081633 -0.000000000

  length of vectors

 k-points in units of 2pi/SCALE and weight: Automatic kpoint scheme
   0.02551020  0.02551020  0.04905808       0.016
   0.02551020  0.05102041  0.09811617       0.031
   0.02551020  0.07653061  0.14717425       0.031
   0.02551020  0.10204082  0.19623234       0.016
   0.02551020  0.00000000 -0.00000000       0.008
   0.05102041  0.05102041  0.14717425       0.016
   0.05102041  0.07653061  0.19623234       0.031
   0.05102041  0.10204082  0.24529042       0.031
   0.05102041 -0.07653061 -0.09811617       0.031
   0.05102041 -0.05102041 -0.04905808       0.016
   0.05102041 -0.02551020  0.00000000       0.016
   0.05102041  0.00000000  0.04905808       0.016
   0.07653061  0.07653061  0.24529042       0.016
   0.07653061  0.10204082  0.29434851       0.031
   0.07653061 -0.07653061 -0.04905808       0.016
   0.07653061 -0.05102041  0.00000000       0.016
   0.07653061 -0.02551020  0.04905808       0.031
   0.07653061  0.00000000  0.09811617       0.016
   0.10204082  0.10204082  0.34340659       0.008
   0.10204082 -0.07653061  0.00000000       0.016
   0.10204082 -0.05102041  0.04905808       0.031
   0.10204082 -0.02551020  0.09811617       0.031
   0.10204082  0.00000000  0.14717425       0.016
  -0.07653061 -0.07653061 -0.34340659       0.016
  -0.07653061 -0.05102041 -0.29434851       0.031
  -0.07653061 -0.02551020 -0.24529042       0.031
  -0.07653061 -0.00000000 -0.19623234       0.016
  -0.05102041 -0.05102041 -0.24529042       0.016
  -0.05102041 -0.02551020 -0.19623234       0.031
  -0.05102041 -0.00000000 -0.14717425       0.016
  -0.02551020 -0.02551020 -0.14717425       0.016
  -0.02551020 -0.00000000 -0.09811617       0.016
   0.00000000  0.00000000 -0.04905808       0.004
   0.07653061  0.07653061  0.14717425       0.016
   0.07653061  0.10204082  0.19623234       0.016
   0.07653061  0.00000000  0.00000000       0.008
   0.10204082  0.10204082  0.24529042       0.008
   0.10204082 -0.02551020  0.00000000       0.016
   0.10204082  0.00000000  0.04905808       0.016
   0.12755102 -0.05102041 -0.00000000       0.016
   0.12755102 -0.02551020  0.04905808       0.031
   0.12755102  0.00000000  0.09811617       0.016
  -0.05102041 -0.05102041 -0.34340659       0.016
  -0.05102041 -0.02551020 -0.29434851       0.031
  -0.05102041  0.00000000 -0.24529042       0.016
  -0.02551020 -0.02551020 -0.24529042       0.016
  -0.02551020 -0.00000000 -0.19623234       0.016
   0.00000000 -0.00000000 -0.14717425       0.004
   0.12755102  0.00000000 -0.00000000       0.008
   0.15306122 -0.02551020 -0.00000000       0.016
   0.15306122  0.00000000  0.04905808       0.016
  -0.02551020 -0.02551020 -0.34340659       0.016
  -0.02551020 -0.00000000 -0.29434851       0.016
   0.00000000  0.00000000 -0.24529042       0.004
   0.17857143  0.00000000 -0.00000000       0.008
   0.00000000 -0.00000000 -0.34340659       0.004

 k-points in reciprocal lattice and weights: Automatic kpoint scheme
   0.06250000  0.06250000  0.06250000       0.016
   0.18750000  0.06250000  0.06250000       0.031
   0.31250000  0.06250000  0.06250000       0.031
   0.43750000  0.06250000  0.06250000       0.016
  -0.06250000  0.06250000  0.06250000       0.008
   0.18750000  0.18750000  0.06250000       0.016
   0.31250000  0.18750000  0.06250000       0.031
   0.43750000  0.18750000  0.06250000       0.031
  -0.43750000  0.18750000  0.06250000       0.031
  -0.31250000  0.18750000  0.06250000       0.016
  -0.18750000  0.18750000  0.06250000       0.016
  -0.06250000  0.18750000  0.06250000       0.016
   0.31250000  0.31250000  0.06250000       0.016
   0.43750000  0.31250000  0.06250000       0.031
  -0.43750000  0.31250000  0.06250000       0.016
  -0.31250000  0.31250000  0.06250000       0.016
  -0.18750000  0.31250000  0.06250000       0.031
  -0.06250000  0.31250000  0.06250000       0.016
   0.43750000  0.43750000  0.06250000       0.008
  -0.43750000  0.43750000  0.06250000       0.016
  -0.31250000  0.43750000  0.06250000       0.031
  -0.18750000  0.43750000  0.06250000       0.031
  -0.06250000  0.43750000  0.06250000       0.016
  -0.43750000 -0.43750000  0.06250000       0.016
  -0.31250000 -0.43750000  0.06250000       0.031
  -0.18750000 -0.43750000  0.06250000       0.031
  -0.06250000 -0.43750000  0.06250000       0.016
  -0.31250000 -0.31250000  0.06250000       0.016
  -0.18750000 -0.31250000  0.06250000       0.031
  -0.06250000 -0.31250000  0.06250000       0.016
  -0.18750000 -0.18750000  0.06250000       0.016
  -0.06250000 -0.18750000  0.06250000       0.016
  -0.06250000 -0.06250000  0.06250000       0.004
   0.18750000  0.18750000  0.18750000       0.016
   0.31250000  0.18750000  0.18750000       0.016
  -0.18750000  0.18750000  0.18750000       0.008
   0.31250000  0.31250000  0.18750000       0.008
  -0.31250000  0.31250000  0.18750000       0.016
  -0.18750000  0.31250000  0.18750000       0.016
  -0.43750000  0.43750000  0.18750000       0.016
  -0.31250000  0.43750000  0.18750000       0.031
  -0.18750000  0.43750000  0.18750000       0.016
  -0.43750000 -0.43750000  0.18750000       0.016
  -0.31250000 -0.43750000  0.18750000       0.031
  -0.18750000 -0.43750000  0.18750000       0.016
  -0.31250000 -0.31250000  0.18750000       0.016
  -0.18750000 -0.31250000  0.18750000       0.016
  -0.18750000 -0.18750000  0.18750000       0.004
  -0.31250000  0.31250000  0.31250000       0.008
  -0.43750000  0.43750000  0.31250000       0.016
  -0.31250000  0.43750000  0.31250000       0.016
  -0.43750000 -0.43750000  0.31250000       0.016
  -0.31250000 -0.43750000  0.31250000       0.016
  -0.31250000 -0.31250000  0.31250000       0.004
  -0.43750000  0.43750000  0.43750000       0.008
  -0.43750000 -0.43750000  0.43750000       0.004

 position of ions in fractional coordinates (direct lattice)
   0.25000000  0.75000000  0.50000000
   0.00000000  0.00000000  0.00000000

 position of ions in cartesian coordinates  (Angst):
   2.45000000  0.00000000  0.63700000
   0.00000000  0.00000000  0.00000000

 k-point  1 :   0.0625 0.0625 0.0625  plane waves:     130
 k-point  2 :   0.1875 0.0625 0.0625  plane waves:     129
 k-point  3 :   0.3125 0.0625 0.0625  plane waves:     128
 k-point  4 :   0.4375 0.0625 0.0625  plane waves:     122
 k-point  5 :  -0.0625 0.0625 0.0625  plane waves:     127
 k-point  6 :   0.1875 0.1875 0.0625  plane waves:     128
 k-point  7 :   0.3125 0.1875 0.0625  plane waves:     126
 k-point  8 :   0.4375 0.1875 0.0625  plane waves:     128
 k-point  9 :  -0.4375 0.1875 0.0625  plane waves:     130
 k-point 10 :  -0.3125 0.1875 0.0625  plane waves:     128
 k-point 11 :  -0.1875 0.1875 0.0625  plane waves:     133
 k-point 12 :  -0.0625 0.1875 0.0625  plane waves:     133
 k-point 13 :   0.3125 0.3125 0.0625  plane waves:     128
 k-point 14 :   0.4375 0.3125 0.0625  plane waves:     129
 k-point 15 :  -0.4375 0.3125 0.0625  plane waves:     127
 k-point 16 :  -0.3125 0.3125 0.0625  plane waves:     131
 k-point 17 :  -0.1875 0.3125 0.0625  plane waves:     130
 k-point 18 :  -0.0625 0.3125 0.0625  plane waves:     131
 k-point 19 :   0.4375 0.4375 0.0625  plane waves:     130
 k-point 20 :  -0.4375 0.4375 0.0625  plane waves:     133
 k-point 21 :  -0.3125 0.4375 0.0625  plane waves:     129
 k-point 22 :  -0.1875 0.4375 0.0625  plane waves:     129
 k-point 23 :  -0.0625 0.4375 0.0625  plane waves:     128
 k-point 24 :  -0.4375-0.4375 0.0625  plane waves:     126
 k-point 25 :  -0.3125-0.4375 0.0625  plane waves:     124
 k-point 26 :  -0.1875-0.4375 0.0625  plane waves:     123
 k-point 27 :  -0.0625-0.4375 0.0625  plane waves:     124
 k-point 28 :  -0.3125-0.3125 0.0625  plane waves:     121
 k-point 29 :  -0.1875-0.3125 0.0625  plane waves:     125
 k-point 30 :  -0.0625-0.3125 0.0625  plane waves:     125
 k-point 31 :  -0.1875-0.1875 0.0625  plane waves:     123
 k-point 32 :  -0.0625-0.1875 0.0625  plane waves:     131
 k-point 33 :  -0.0625-0.0625 0.0625  plane waves:     131
 k-point 34 :   0.1875 0.1875 0.1875  plane waves:     131
 k-point 35 :   0.3125 0.1875 0.1875  plane waves:     130
 k-point 36 :  -0.1875 0.1875 0.1875  plane waves:     129
 k-point 37 :   0.3125 0.3125 0.1875  plane waves:     126
 k-point 38 :  -0.3125 0.3125 0.1875  plane waves:     126
 k-point 39 :  -0.1875 0.3125 0.1875  plane waves:     126
 k-point 40 :  -0.4375 0.4375 0.1875  plane waves:     129
 k-point 41 :  -0.3125 0.4375 0.1875  plane waves:     129
 k-point 42 :  -0.1875 0.4375 0.1875  plane waves:     128
 k-point 43 :  -0.4375-0.4375 0.1875  plane waves:     130
 k-point 44 :  -0.3125-0.4375 0.1875  plane waves:     127
 k-point 45 :  -0.1875-0.4375 0.1875  plane waves:     124
 k-point 46 :  -0.3125-0.3125 0.1875  plane waves:     121
 k-point 47 :  -0.1875-0.3125 0.1875  plane waves:     117
 k-point 48 :  -0.1875-0.1875 0.1875  plane waves:     119
 k-point 49 :  -0.3125 0.3125 0.3125  plane waves:     129
 k-point 50 :  -0.4375 0.4375 0.3125  plane waves:     131
 k-point 51 :  -0.3125 0.4375 0.3125  plane waves:     131
 k-point 52 :  -0.4375-0.4375 0.3125  plane waves:     129
 k-point 53 :  -0.3125-0.4375 0.3125  plane waves:     124
 k-point 54 :  -0.3125-0.3125 0.3125  plane waves:     122
 k-point 55 :  -0.4375 0.4375 0.4375  plane waves:     129
 k-point 56 :  -0.4375-0.4375 0.4375  plane waves:     126

 maximum and minimum number of plane-waves per node :       133      117

 maximum number of plane-waves:       133
 maximum index in each direction:
   IXMAX=    4   IYMAX=    4   IZMAX=    3
   IXMIN=   -4   IYMIN=   -4   IZMIN=   -4

 serial   3D FFT for wavefunctions
 parallel 3D FFT for charge:
    minimum data exchange during FFTs selected (reduces bandwidth)

 Broyden mixing: mesh for mixing (old mesh)
   NGX =  7   NGY =  7   NGZ =  7
  (NGX  = 24   NGY  = 24   NGZ  = 24)
  gives a total of    343 points

 charge density for first step will be calculated from the start-wavefunctions

 Maximum index for augmentation-charges          241 (set IRDMAX)

 initial charge from wavefunction
 First call to EWALD:  gamma=   0.567
 Maximum number of real-space cells 4x 4x 3
 Maximum number of reciprocal cells 3x 3x 3

--------------------------------------- Iteration      1(   1)  ---------------------------------------

 eigenvalue-minimisations  :   496
 total energy-change (2. order) :-0.1007865E+02  (-0.2623456E-06)
 number of electron       8.0000045 magnetization
 augmentation part       -0.4696095 magnetization

 Broyden mixing:
  rms(total) = 0.48604E-04    rms(broyden)= 0.47425E-04
  rms(prec ) = 0.11427E-03
  weight for this iteration     100.00

 Free energy of the ion-electron system (eV)
  alpha Z        PSCENC =         4.40202223
  Ewald energy   TEWEN  =      -265.18101312
  -Hartree energ DENC   =        -2.49738844
  -exchange      EXHF   =         0.00000000
  -V(xc)+E(xc)   XCENC  =       -17.53968600
  PAW double counting   =        72.30178739      -37.22624970
  entropy T*S    EENTRO =        -0.02170346
  eigenvalues    EBANDS =        29.59174210
  atomic energy  EATOM  =       206.09183643
  Solvation  Ediel_sol  =         0.00000000
  free energy    TOTEN  =       -10.07865255 eV

  energy without entropy =      -10.05694909  energy(sigma->0) =      -10.06780082

--------------------------------------- Iteration      1(   2)  ---------------------------------------

 eigenvalue-minimisations  :   496
 total energy-change (2. order) :-0.2185340E-07  (-0.1266936E-07)
 number of electron       8.0000045 magnetization
 augmentation part       -0.4696095 magnetization

 Free energy of the ion-electron system (eV)
  alpha Z        PSCENC =         4.40202223
  Ewald energy   TEWEN  =      -265.18101312
  -Hartree energ DENC   =        -2.49749449
  -exchange      EXHF   =         0.00000000
  -V(xc)+E(xc)   XCENC  =       -17.53965183
  PAW double counting   =        72.30207067      -37.22652709
  entropy T*S    EENTRO =        -0.02170352
  eigenvalues    EBANDS =        29.59180815
  atomic energy  EATOM  =       206.09183643
  Solvation  Ediel_sol  =         0.00000000
  free energy    TOTEN  =       -10.07865257 eV

  energy without entropy =      -10.05694905  energy(sigma->0) =      -10.06780081

 average (electrostatic) potential at core
  the test charge radii are     0.9892
  (the norm of the test charge is              1.0000)
       1 -80.5662       2 -80.5662

 E-fermi :   9.1092     XC(G=0): -10.8947     alpha+bet :-15.6819

 k-point     1 :       0.0625    0.0625    0.0625
  band No.  band energies     occupation
      1      -4.0825      2.00000
      2       4.4076      2.00000
      3       6.7802      2.00000
      4       8.1028      2.00000
      5      12.1050      0.00000
      6      14.6198      0.00000
      7      15.4341      0.00000
      8      16.5997      0.00000

[...]

 k-point    56 :      -0.4375   -0.4375    0.4375
  band No.  band energies     occupation
      1       0.8002      2.00000
      2       0.8112      2.00000
      3       2.6215      2.00000
      4       2.6215      2.00000
      5      11.8002      0.00000
      6      20.1627      0.00000
      7      20.9212      0.00000
      8      20.9221      0.00000

 soft charge-density along one line, spin component           1
         0         1         2         3         4         5         6         7         8         9
 total charge-density along one line

------------------------ aborting loop because EDIFF is reached ----------------------------------------

  FORCE on cell =-STRESS in cart. coord.  units (eV):
  Direction    XX          YY          ZZ          XY          YZ          ZX
  Alpha Z     4.40202     4.40202     4.40202
  Ewald     -90.96023   -90.96023   -83.26083    -0.00000     0.00000     0.00000
  Hartree     0.55224     0.55224     1.39311     0.00000    -0.00000    -0.00000
  E(xc)     -25.42272   -25.42272   -25.38354     0.00012     0.00006     0.00006
  Local     -11.23414   -11.23414   -17.72095    -0.00004    -0.00012    -0.00012
  n-local    77.30295    77.33095    76.99914     0.99045    -0.49291    -0.45920
  augment   -11.97825   -11.97825   -11.91937     0.00008     0.00008     0.00008
  Kinetic    56.65293    56.94087    56.93272     3.19841    -2.05559    -2.75488
  Fock        0.00000     0.00000     0.00000     0.00000     0.00000     0.00000
  Total      -0.52722    -0.52722     1.44230    -0.00000     0.00000     0.00000
  in kB     -27.61486   -27.61486    75.54471    -0.00000     0.00000     0.00000

 VOLUME and BASIS-vectors are now :
  energy-cutoff  :      150.00
  volume of cell :       30.59
      direct lattice vectors                 reciprocal lattice vectors
    -2.450000000  2.450000000  1.274000000     0.000000000  0.204081633  0.392464678
     2.450000000 -2.450000000  1.274000000     0.204081633  0.000000000  0.392464678
     2.450000000  2.450000000 -1.274000000     0.204081633  0.204081633 -0.000000000

  length of vectors
     3.691622408  3.691622408  3.691622408     0.442354876  0.442354876  0.288615013

 FORCES acting on ions
    electron-ion (+dipol)            ewald-force                    non-local-force                 convergence-correction
   -.269E-04 0.269E-04 -.509E-14   0.198E-14 0.156E-15 0.342E-17   -.131E-15 0.498E-16 -.133E-16   0.253E-09 -.253E-09 -.219E-17
   0.269E-04 -.269E-04 -.246E-14   -.185E-14 0.943E-16 0.891E-15   0.118E-15 -.483E-16 -.399E-17   -.253E-09 0.253E-09 0.829E-16
   -.508E-14 0.223E-14 -.755E-14   0.139E-15 0.250E-15 0.894E-15   -.123E-16 0.156E-17 -.173E-16   -.283E-16 0.279E-16 0.807E-16

 POSITION                                       TOTAL-FORCE (eV/Angst)
      2.45000      0.00000      0.63700        -0.000000     -0.000000      0.000000
      0.00000      0.00000      0.00000         0.000000      0.000000     -0.000000
    total drift:                               -0.000000      0.000000     -0.000000

  FREE ENERGIE OF THE ION-ELECTRON SYSTEM (eV)
  free  energy   TOTEN  =       -10.07865257 eV

  energy  without entropy=      -10.05694905  energy(sigma->0) =      -10.06780081

 reached required accuracy - stopping structural energy minimisation
 writing wavefunctions