 vasp.5.4.4.18Apr17-6-g9f103f2a35 (build Dec 09 2018 21:25:21) complex

 executed on IFC18.0.1.163_CrayMP date 2019.03.20  09:18:30

 INCAR:
 POTCAR:   PAW_PBE Si 05Jan2001

 POTCAR:   PAW_PBE Si 05Jan2001
   VRHFIN =Si: s2p2

   TITEL  = PAW_PBE Si 05Jan2001
   POMASS =   28.085; ZVAL   =    4.000    mass and valenz
   ENMAX  =  245.345; ENMIN  =  184.009 eV
   QCUT   =   -4.246; QGAM   =    8.493    optimization parameters

   Description
     l     E      TYP  RCUT    TYP  RCUT
     0   .000     23  1.900
     0   .000     23  1.900
     1   .000     23  1.900
     1   .000     23  1.900
     2   .000      7  1.900

 PAW_PBE Si 05Jan2001                   :

 POSCAR: Si2
  positions in direct lattice
 exchange correlation table for  LEXCH =        8
   RHO(1)=    0.500       N(1)  =     2000
   RHO(2)=  100.500       N(2)  =     4000

 ion  position               nearest neighbor table
   1  0.250  0.750  0.500-   2 2.53   2 2.53   2 2.53   2 2.53   2 3.11   2 3.11   2 3.11   2 3.11

   2  0.000  0.000  0.000-   1 2.53   1 2.53   1 2.53   1 2.53   1 3.11   1 3.11   1 3.11   1 3.11

  LATTYP: Found a body centered tetragonal cell.
 ALAT       =     4.9000000000
 C/A-ratio  =     0.5200000000

  Lattice vectors:

 A1 = (  -2.4500000000,   2.4500000000,   1.2740000000)
 A2 = (   2.4500000000,  -2.4500000000,   1.2740000000)
 A3 = (   2.4500000000,   2.4500000000,  -1.2740000000)

Analysis of symmetry for initial positions (statically):
 Subroutine PRICEL returns:
 Original cell was already a primitive cell.

 Routine SETGRP: Setting up the symmetry group for a
 body centered tetragonal supercell.

 Subroutine GETGRP returns: Found 16 space group operations
 (whereof  8 operations were pure point group operations)
 out of a pool of 16 trial point group operations.

The static configuration has the point symmetry D_2d.
 The point group associated with its full space group is D_4h.

Analysis of symmetry for dynamics (positions and initial velocities):
 Subroutine PRICEL returns:
 Original cell was already a primitive cell.

 Routine SETGRP: Setting up the symmetry group for a
 body centered tetragonal supercell.

 Subroutine GETGRP returns: Found 16 space group operations
 (whereof  8 operations were pure point group operations)
 out of a pool of 16 trial point group operations.

The dynamic configuration has the point symmetry D_2d.
 The point group associated with its full space group is D_4h.

 Subroutine INISYM returns: Found 16 space group operations
 (whereof  8 operations are pure point group operations),
 and found     1 'primitive' translations

 KPOINTS: Automatic kpoint scheme

Automatic generation of k-mesh.
Space group operators:
 irot       det(A)        alpha          n_x          n_y          n_z        tau_x        tau_y        tau_z
    1     1.000000     0.000000     1.000000     0.000000     0.000000     0.000000     0.000000     0.000000
    2    -1.000000    90.000000    -0.000000    -0.000000    -1.000000     0.000000     0.000000     0.000000
    3     1.000000   180.000000    -0.000000    -0.000000    -1.000000     0.000000     0.000000     0.000000
    4    -1.000000    90.000000    -0.000000     0.000000     1.000000     0.000000     0.000000     0.000000
    5    -1.000000   180.000000     0.000000    -1.000000     0.000000     0.000000     0.000000     0.000000
    6     1.000000   180.000000     0.707107     0.707107    -0.000000     0.000000     0.000000     0.000000
    7    -1.000000   180.000000     1.000000     0.000000     0.000000     0.000000     0.000000     0.000000
    8     1.000000   180.000000     0.707107    -0.707107     0.000000     0.000000     0.000000     0.000000
    9    -1.000000     0.000000     1.000000     0.000000     0.000000     0.250000     0.750000     0.500000
   10     1.000000    90.000000    -0.000000    -0.000000    -1.000000     0.250000     0.750000     0.500000
   11    -1.000000   180.000000    -0.000000    -0.000000    -1.000000     0.250000     0.750000     0.500000
   12     1.000000    90.000000    -0.000000     0.000000     1.000000     0.250000     0.750000     0.500000
   13     1.000000   180.000000     0.000000    -1.000000     0.000000     0.250000     0.750000     0.500000
   14    -1.000000   180.000000     0.707107     0.707107    -0.000000     0.250000     0.750000     0.500000
   15     1.000000   180.000000     1.000000     0.000000     0.000000     0.250000     0.750000     0.500000
   16    -1.000000   180.000000     0.707107    -0.707107     0.000000     0.250000     0.750000     0.500000

 Subroutine IBZKPT returns following result:

 Found    126 irreducible k-points:

 Following reciprocal coordinates:
            Coordinates               Weight
  0.000000  0.000000  0.000000      1.000000
  0.090909 -0.000000  0.000000      8.000000
  0.181818 -0.000000  0.000000      8.000000
  0.272727 -0.000000  0.000000      8.000000
  0.363636 -0.000000  0.000000      8.000000
  0.454545 -0.000000 -0.000000      8.000000
  0.090909  0.090909  0.000000      8.000000
  0.181818  0.090909 -0.000000     16.000000
  0.272727  0.090909  0.000000     16.000000
  0.363636  0.090909  0.000000     16.000000
  0.454545  0.090909 -0.000000     16.000000
 -0.454545  0.090909 -0.000000     16.000000
 -0.363636  0.090909  0.000000     16.000000
 -0.272727  0.090909  0.000000     16.000000
 -0.181818  0.090909  0.000000     16.000000
 -0.090909  0.090909  0.000000      4.000000
  0.181818  0.181818  0.000000      8.000000
  0.272727  0.181818  0.000000     16.000000
  0.363636  0.181818 -0.000000     16.000000
  0.454545  0.181818 -0.000000     16.000000
 -0.454545  0.181818 -0.000000     16.000000
 -0.363636  0.181818  0.000000     16.000000
 -0.272727  0.181818 -0.000000     16.000000
 -0.181818  0.181818  0.000000      4.000000
  0.272727  0.272727 -0.000000      8.000000
  0.363636  0.272727 -0.000000     16.000000
  0.454545  0.272727  0.000000     16.000000
 -0.454545  0.272727  0.000000     16.000000
 -0.363636  0.272727 -0.000000     16.000000
 -0.272727  0.272727 -0.000000      4.000000
  0.363636  0.363636  0.000000      8.000000
  0.454545  0.363636 -0.000000     16.000000
 -0.454545  0.363636 -0.000000     16.000000
 -0.363636  0.363636  0.000000      4.000000
  0.454545  0.454545 -0.000000      8.000000
 -0.454545  0.454545 -0.000000      4.000000
  0.090909  0.090909  0.090909      8.000000
  0.181818  0.090909  0.090909     16.000000
  0.272727  0.090909  0.090909     16.000000
  0.363636  0.090909  0.090909     16.000000
 -0.090909  0.090909  0.090909      4.000000
  0.181818  0.181818  0.090909      8.000000
  0.272727  0.181818  0.090909     16.000000
  0.363636  0.181818  0.090909     16.000000
  0.454545  0.181818  0.090909     16.000000
 -0.454545  0.181818  0.090909     16.000000
 -0.363636  0.181818  0.090909      8.000000
 -0.181818  0.181818  0.090909      8.000000
 -0.090909  0.181818  0.090909      8.000000
  0.272727  0.272727  0.090909      8.000000
  0.363636  0.272727  0.090909     16.000000
  0.454545  0.272727  0.090909     16.000000
 -0.454545  0.272727  0.090909      8.000000
 -0.272727  0.272727  0.090909      8.000000
 -0.181818  0.272727  0.090909     16.000000
 -0.090909  0.272727  0.090909      8.000000
  0.363636  0.363636  0.090909      8.000000
  0.454545  0.363636  0.090909      8.000000
 -0.363636  0.363636  0.090909      8.000000
 -0.272727  0.363636  0.090909     16.000000
[...]
 -0.272727  0.454545  0.272727      8.000000
 -0.454545 -0.454545  0.272727      8.000000
 -0.363636 -0.454545  0.272727     16.000000
 -0.272727 -0.454545  0.272727      8.000000
 -0.363636 -0.363636  0.272727      8.000000
 -0.272727 -0.363636  0.272727      8.000000
 -0.272727 -0.272727  0.272727      2.000000
 -0.363636  0.363636  0.363636      4.000000
 -0.454545  0.454545  0.363636      8.000000
 -0.363636  0.454545  0.363636      8.000000
 -0.454545 -0.454545  0.363636      8.000000
 -0.363636 -0.454545  0.363636      8.000000
 -0.363636 -0.363636  0.363636      2.000000
 -0.454545  0.454545  0.454545      4.000000
 -0.454545 -0.454545  0.454545      2.000000

 Following cartesian coordinates:
            Coordinates               Weight
  0.000000  0.000000  0.000000      1.000000
  0.000000  0.018553  0.035679      8.000000
  0.000000  0.037106  0.071357      8.000000
  0.000000  0.055659  0.107036      8.000000
  0.000000  0.074212  0.142714      8.000000
 -0.000000  0.092764  0.178393      8.000000
  0.018553  0.018553  0.071357      8.000000
  0.018553  0.037106  0.107036     16.000000
  0.018553  0.055659  0.142714     16.000000
  0.018553  0.074212  0.178393     16.000000
  0.018553  0.092764  0.214072     16.000000
  0.018553 -0.092764 -0.142714     16.000000
  0.018553 -0.074212 -0.107036     16.000000
  0.018553 -0.055659 -0.071357     16.000000
  0.018553 -0.037106 -0.035679     16.000000
  0.018553 -0.018553  0.000000      4.000000
  0.037106  0.037106  0.142714      8.000000
  0.037106  0.055659  0.178393     16.000000
  0.037106  0.074212  0.214072     16.000000
  0.037106  0.092764  0.249750     16.000000
  0.037106 -0.092764 -0.107036     16.000000
  0.037106 -0.074212 -0.071357     16.000000
  0.037106 -0.055659 -0.035679     16.000000
  0.037106 -0.037106  0.000000      4.000000
  0.055659  0.055659  0.214072      8.000000
  0.055659  0.074212  0.249750     16.000000
  0.055659  0.092764  0.285429     16.000000
  0.055659 -0.092764 -0.071357     16.000000
  0.055659 -0.074212 -0.035679     16.000000
  0.055659 -0.055659  0.000000      4.000000
  0.074212  0.074212  0.285429      8.000000
  0.074212  0.092764  0.321107     16.000000
  0.074212 -0.092764 -0.035679     16.000000
  0.074212 -0.074212  0.000000      4.000000
  0.092764  0.092764  0.356786      8.000000
  0.092764 -0.092764 -0.000000      4.000000
  0.037106  0.037106  0.071357      8.000000
  0.037106  0.055659  0.107036     16.000000
  0.037106  0.074212  0.142714     16.000000
  0.037106  0.092764  0.178393     16.000000
  0.037106  0.000000  0.000000      4.000000
  0.055659  0.055659  0.142714      8.000000
  0.055659  0.074212  0.178393     16.000000
  0.055659  0.092764  0.214072     16.000000
  0.055659  0.111317  0.249750     16.000000
  0.055659 -0.074212 -0.107036     16.000000
  0.055659 -0.055659 -0.071357      8.000000
  0.055659 -0.018553 -0.000000      8.000000
  0.055659 -0.000000  0.035679      8.000000
  0.074212  0.074212  0.214072      8.000000
  0.074212  0.092764  0.249750     16.000000
  0.074212  0.111317  0.285429     16.000000
  0.074212 -0.074212 -0.071357      8.000000
  0.074212 -0.037106  0.000000      8.000000
  0.074212 -0.018553  0.035679     16.000000
  0.074212  0.000000  0.071357      8.000000
  0.092764  0.092764  0.285429      8.000000
  0.092764  0.111317  0.321107      8.000000
  0.092764 -0.055659  0.000000      8.000000
  0.092764 -0.037106  0.035679     16.000000
[...]
  0.148423 -0.000000  0.071357      8.000000
 -0.037106 -0.037106 -0.356786      8.000000
 -0.037106 -0.018553 -0.321107     16.000000
 -0.037106  0.000000 -0.285429      8.000000
 -0.018553 -0.018553 -0.285429      8.000000
 -0.018553 -0.000000 -0.249750      8.000000
[...]
 k-point 13 :  -0.3636 0.0909 0.0000  plane waves:     272
 k-point 14 :  -0.2727 0.0909 0.0000  plane waves:     272
 k-point 15 :  -0.1818 0.0909 0.0000  plane waves:     274
 k-point 16 :  -0.0909 0.0909 0.0000  plane waves:     279
 k-point 17 :   0.1818 0.1818 0.0000  plane waves:     273
 k-point 18 :   0.2727 0.1818 0.0000  plane waves:     277
 k-point 19 :   0.3636 0.1818-0.0000  plane waves:     274
 k-point 20 :   0.4545 0.1818-0.0000  plane waves:     272
 k-point 21 :  -0.4545 0.1818-0.0000  plane waves:     269
 k-point 22 :  -0.3636 0.1818 0.0000  plane waves:     274
 k-point 23 :  -0.2727 0.1818-0.0000  plane waves:     277
 k-point 24 :  -0.1818 0.1818 0.0000  plane waves:     283
 k-point 25 :   0.2727 0.2727-0.0000  plane waves:     271
 k-point 26 :   0.3636 0.2727-0.0000  plane waves:     273
 k-point 27 :   0.4545 0.2727 0.0000  plane waves:     272
 k-point 28 :  -0.4545 0.2727 0.0000  plane waves:     273
 k-point 29 :  -0.3636 0.2727-0.0000  plane waves:     279
 k-point 30 :  -0.2727 0.2727-0.0000  plane waves:     279
 k-point 31 :   0.3636 0.3636 0.0000  plane waves:     270
 k-point 32 :   0.4545 0.3636-0.0000  plane waves:     275
 k-point 33 :  -0.4545 0.3636-0.0000  plane waves:     279
 k-point 34 :  -0.3636 0.3636 0.0000  plane waves:     279
 k-point 35 :   0.4545 0.4545-0.0000  plane waves:     279
 k-point 36 :  -0.4545 0.4545-0.0000  plane waves:     275
 k-point 37 :   0.0909 0.0909 0.0909  plane waves:     275
 k-point 38 :   0.1818 0.0909 0.0909  plane waves:     273
 k-point 39 :   0.2727 0.0909 0.0909  plane waves:     271
 k-point 40 :   0.3636 0.0909 0.0909  plane waves:     276
 k-point 41 :  -0.0909 0.0909 0.0909  plane waves:     275
 k-point 42 :   0.1818 0.1818 0.0909  plane waves:     275
 k-point 43 :   0.2727 0.1818 0.0909  plane waves:     270
 k-point 44 :   0.3636 0.1818 0.0909  plane waves:     273
 k-point 45 :   0.4545 0.1818 0.0909  plane waves:     271
 k-point 46 :  -0.4545 0.1818 0.0909  plane waves:     270
 k-point 47 :  -0.3636 0.1818 0.0909  plane waves:     275
 k-point 48 :  -0.1818 0.1818 0.0909  plane waves:     278
 k-point 49 :  -0.0909 0.1818 0.0909  plane waves:     276
 k-point 50 :   0.2727 0.2727 0.0909  plane waves:     273
 k-point 51 :   0.3636 0.2727 0.0909  plane waves:     270
 k-point 52 :   0.4545 0.2727 0.0909  plane waves:     270
 k-point 53 :  -0.4545 0.2727 0.0909  plane waves:     275
 k-point 54 :  -0.2727 0.2727 0.0909  plane waves:     282
 k-point 55 :  -0.1818 0.2727 0.0909  plane waves:     278
 k-point 56 :  -0.0909 0.2727 0.0909  plane waves:     271
 k-point 57 :   0.3636 0.3636 0.0909  plane waves:     271
 k-point 58 :   0.4545 0.3636 0.0909  plane waves:     277
 k-point 59 :  -0.3636 0.3636 0.0909  plane waves:     283
 k-point 60 :  -0.2727 0.3636 0.0909  plane waves:     279
[...]
 k-point 85 :  -0.1818 0.1818 0.1818  plane waves:     274
 k-point 86 :   0.2727 0.2727 0.1818  plane waves:     270
 k-point 87 :   0.3636 0.2727 0.1818  plane waves:     270
 k-point 88 :  -0.2727 0.2727 0.1818  plane waves:     278
 k-point 89 :  -0.1818 0.2727 0.1818  plane waves:     275
 k-point 90 :  -0.3636 0.3636 0.1818  plane waves:     274
 k-point 91 :  -0.2727 0.3636 0.1818  plane waves:     275
 k-point 92 :  -0.1818 0.3636 0.1818  plane waves:     275
 k-point 93 :  -0.4545 0.4545 0.1818  plane waves:     276
 k-point 94 :  -0.3636 0.4545 0.1818  plane waves:     277
 k-point 95 :  -0.2727 0.4545 0.1818  plane waves:     276
 k-point 96 :  -0.1818 0.4545 0.1818  plane waves:     278
 k-point 97 :  -0.4545-0.4545 0.1818  plane waves:     274
 k-point 98 :  -0.3636-0.4545 0.1818  plane waves:     272
 k-point 99 :  -0.2727-0.4545 0.1818  plane waves:     278
 k-point ** :  -0.1818-0.4545 0.1818  plane waves:     276
 k-point ** :  -0.3636-0.3636 0.1818  plane waves:     279
 k-point ** :  -0.2727-0.3636 0.1818  plane waves:     279
 k-point ** :  -0.1818-0.3636 0.1818  plane waves:     272
 k-point ** :  -0.2727-0.2727 0.1818  plane waves:     276
 k-point ** :  -0.1818-0.2727 0.1818  plane waves:     271
 k-point ** :  -0.1818-0.1818 0.1818  plane waves:     271
 k-point ** :  -0.2727 0.2727 0.2727  plane waves:     280
 k-point ** :  -0.3636 0.3636 0.2727  plane waves:     274
 k-point ** :  -0.2727 0.3636 0.2727  plane waves:     275
 k-point ** :  -0.4545 0.4545 0.2727  plane waves:     273
 k-point ** :  -0.3636 0.4545 0.2727  plane waves:     274
 k-point ** :  -0.2727 0.4545 0.2727  plane waves:     275
 k-point ** :  -0.4545-0.4545 0.2727  plane waves:     271
 k-point ** :  -0.3636-0.4545 0.2727  plane waves:     278
 k-point ** :  -0.2727-0.4545 0.2727  plane waves:     282
 k-point ** :  -0.3636-0.3636 0.2727  plane waves:     278
 k-point ** :  -0.2727-0.3636 0.2727  plane waves:     275
 k-point ** :  -0.2727-0.2727 0.2727  plane waves:     275
 k-point ** :  -0.3636 0.3636 0.3636  plane waves:     274
 k-point ** :  -0.4545 0.4545 0.3636  plane waves:     272
 k-point ** :  -0.3636 0.4545 0.3636  plane waves:     275
 k-point ** :  -0.4545-0.4545 0.3636  plane waves:     277
 k-point ** :  -0.3636-0.4545 0.3636  plane waves:     276
 k-point ** :  -0.3636-0.3636 0.3636  plane waves:     268
 k-point ** :  -0.4545 0.4545 0.4545  plane waves:     276
 k-point ** :  -0.4545-0.4545 0.4545  plane waves:     276

 maximum and minimum number of plane-waves per node :       283      263

 maximum number of plane-waves:       283
 maximum index in each direction:
   IXMAX=    5   IYMAX=    5   IZMAX=    4
   IXMIN=   -5   IYMIN=   -5   IZMIN=   -5

 serial   3D FFT for wavefunctions
 parallel 3D FFT for charge:
    minimum data exchange during FFTs selected (reduces bandwidth)

 Broyden mixing: mesh for mixing (old mesh)
   NGX =  9   NGY =  9   NGZ =  9
  (NGX  = 28   NGY  = 28   NGZ  = 28)
  gives a total of    729 points

 initial charge density was supplied:
 charge density of overlapping atoms calculated
 number of electron       8.0000000 magnetization
 keeping initial charge density in first step

 Maximum index for augmentation-charges          442 (set IRDMAX)

 First call to EWALD:  gamma=   0.567
 Maximum number of real-space cells 4x 4x 3
 Maximum number of reciprocal cells 3x 3x 3

--------------------------------------- Iteration      1(   1)  ---------------------------------------

 eigenvalue-minimisations  :  2064
 total energy-change (2. order) :-0.1466919E+01  (-0.2335907E+03)
 number of electron       8.0000000 magnetization
 augmentation part        8.0000000 magnetization

 Free energy of the ion-electron system (eV)
  alpha Z        PSCENC =         4.40202223
  Ewald energy   TEWEN  =      -265.18101312
  -Hartree energ DENC   =        -2.30415367
  -exchange      EXHF   =         0.00000000
  -V(xc)+E(xc)   XCENC  =       -17.81545108
  PAW double counting   =        65.95520812      -30.76852678
  entropy T*S    EENTRO =        -0.01343700
  eigenvalues    EBANDS =        38.13493341
  atomic energy  EATOM  =       206.12349923
  Solvation  Ediel_sol  =         0.00000000
  free energy    TOTEN  =        -1.46691866 eV

  energy without entropy =       -1.45348166  energy(sigma->0) =       -1.46020016

[...]

 Broyden mixing:
  rms(total) = 0.14980E+00    rms(broyden)= 0.14978E+00
  rms(prec ) = 0.33540E+00
  weight for this iteration     100.00

[...]

 eigenvalue-minimisations  :  2592
 total energy-change (2. order) : 0.5104153E-02  (-0.1810883E-03)
 number of electron       7.9999993 magnetization
 augmentation part       -0.4700893 magnetization

[...]

 eigenvalues of (default mixing * dielectric matrix)
  average eigenvalue GAMMA=   2.6678
  2.6678

[...]

 average (electrostatic) potential at core
  the test charge radii are     0.9892
  (the norm of the test charge is              1.0000)
       1 -80.5495       2 -80.5495

 E-fermi :   9.1145     XC(G=0): -10.8924     alpha+bet :-15.6819

 k-point     1 :       0.0000    0.0000    0.0000
  band No.  band energies     occupation
      1      -4.6151      2.00000
      2       6.1866      2.00000
      3       6.2994      2.00000
      4       6.2994      2.00000
      5      10.5413      0.00000
      6      16.8719      0.00000
      7      17.3699      0.00000
      8      17.3700      0.00000

[...]

 soft charge-density along one line, spin component           1
         0         1         2         3         4         5         6         7         8         9
 total charge-density along one line

------------------------ aborting loop because EDIFF is reached ----------------------------------------

  FORCE on cell =-STRESS in cart. coord.  units (eV):
  Direction    XX          YY          ZZ          XY          YZ          ZX
  Alpha Z     4.40202     4.40202     4.40202
  Ewald     -90.96023   -90.96023   -83.26083    -0.00000     0.00000     0.00000
  Hartree     0.55367     0.55367     1.39098     0.00000     0.00000     0.00000
  E(xc)     -25.43108   -25.43108   -25.38429     0.00005     0.00001     0.00001
  Local     -11.25037   -11.25037   -17.50911    -0.00002    -0.00005    -0.00005
  n-local    77.11348    76.88002    76.59638     1.08034    -0.33542    -0.46461
  augment   -12.06846   -12.06846   -11.96879     0.00004     0.00005     0.00005
  Kinetic    59.73565    54.91556    56.63616     3.70346    -1.71733    -3.36931
  Fock        0.00000     0.00000     0.00000     0.00000     0.00000     0.00000
  Total      -0.43209    -0.43209     0.90252    -0.00000     0.00000     0.00000
  in kB     -22.63199   -22.63199    47.27236    -0.00000     0.00000     0.00000

 VOLUME and BASIS-vectors are now :
  energy-cutoff  :      250.00
  volume of cell :       30.59
      direct lattice vectors                 reciprocal lattice vectors
    -2.450000000  2.450000000  1.274000000     0.000000000  0.204081633  0.392464678
     2.450000000 -2.450000000  1.274000000     0.204081633  0.000000000  0.392464678
     2.450000000  2.450000000 -1.274000000     0.204081633  0.204081633 -0.000000000

[...]

 FORCES acting on ions
    electron-ion (+dipol)            ewald-force                    non-local-force                 convergence-correction
   0.968E-05 -.968E-05 -.366E-14   0.198E-14 0.156E-15 0.342E-17   -.137E-16 -.329E-17 0.812E-18   -.196E-06 0.196E-06 -.166E-16
   -.968E-05 0.968E-05 0.924E-14   -.185E-14 0.943E-16 0.891E-15   0.113E-16 0.217E-16 0.104E-18   0.196E-06 -.196E-06 0.180E-16
   -.173E-13 0.139E-13 0.558E-14   0.139E-15 0.250E-15 0.894E-15   -.243E-17 0.184E-16 0.916E-18   -.178E-15 -.133E-15 0.145E-17

 POSITION                                       TOTAL-FORCE (eV/Angst)
      2.45000      0.00000      0.63700         0.000000     -0.000000     -0.000000
      0.00000      0.00000      0.00000        -0.000000      0.000000      0.000000
    total drift:                               -0.000000      0.000000      0.000000

  FREE ENERGIE OF THE ION-ELECTRON SYSTEM (eV)
  free  energy   TOTEN  =       -10.22877484 eV

  energy  without entropy=      -10.21314598  energy(sigma->0) =      -10.22096041

[...]

 eigenvalues of (default mixing * dielectric matrix)
  average eigenvalue GAMMA=   1.3409
  2.2251  0.4566

[...]

 d Force = 0.0000000E+00[ 0.000E+00, 0.000E+00]  d Energy = 0.1487769E-01-0.149E-01
 d Force = 0.0000000E+00[ 0.000E+00, 0.000E+00]  d Ewald  = 0.5455751E-01-0.546E-01

 Steepest descent step on ions:
 trial-energy change:   -0.014878  1 .order   -0.014876   -0.028655   -0.001098
  (g-gl).g = 0.287E-01      g.g   = 0.287E-01  gl.gl    = 0.000E+00
 g(Force)  = 0.132E-44   g(Stress)= 0.287E-01 ortho     = 0.000E+00
 gamma     =   0.00000
 trial     =   1.00000
 opt step  =   1.03983  (harmonic =   1.03983) maximal distance =0.00000000
 next E    =   -10.243673   (d E  =  -0.01490)

[...]

 eigenvalue-minimisations  :  3048
 total energy-change (2. order) :-0.5494697E-04  (-0.4274226E-03)
 number of electron       7.9999984 magnetization
 augmentation part       -0.4722649 magnetization

 Broyden mixing:
  rms(total) = 0.40052E-02    rms(broyden)= 0.40044E-02
  rms(prec ) = 0.12228E-01
  weight for this iteration     100.00

[...]

--------------------------------------- Iteration      4(   2)  ---------------------------------------

 eigenvalue-minimisations  :  1216
 total energy-change (2. order) : 0.4403309E-04  (-0.8599778E-05)
 number of electron       7.9999984 magnetization
 augmentation part       -0.4722649 magnetization

 Free energy of the ion-electron system (eV)
  alpha Z        PSCENC =         4.39935555
  Ewald energy   TEWEN  =      -265.23845638
  -Hartree energ DENC   =        -2.45765495
  -exchange      EXHF   =         0.00000000
  -V(xc)+E(xc)   XCENC  =       -17.57930755
  PAW double counting   =        70.73609183      -35.65435434
  entropy T*S    EENTRO =        -0.01606627
  eigenvalues    EBANDS =        29.44316782
  atomic energy  EATOM  =       206.12349923
  Solvation  Ediel_sol  =         0.00000000
  free energy    TOTEN  =       -10.24372507 eV

  energy without entropy =      -10.22765879  energy(sigma->0) =      -10.23569193

 average (electrostatic) potential at core
  the test charge radii are     0.9892
  (the norm of the test charge is              1.0000)
       1 -80.5491       2 -80.5491

 E-fermi :   9.1205     XC(G=0): -10.8907     alpha+bet :-15.6724

[...]

 k-point   126 :      -0.4545   -0.4545    0.4545
  band No.  band energies     occupation
      1       0.8398      2.00000
      2       0.8556      2.00000
      3       2.4970      2.00000
      4       2.4970      2.00000
      5      12.2354      0.00000
      6      18.6917      0.00000
      7      21.1527      0.00000
      8      21.3807      0.00000

 soft charge-density along one line, spin component           1
         0         1         2         3         4         5         6         7         8         9
 total charge-density along one line

------------------------ aborting loop because EDIFF is reached ----------------------------------------

  FORCE on cell =-STRESS in cart. coord.  units (eV):
  Direction    XX          YY          ZZ          XY          YZ          ZX
  Alpha Z     4.39936     4.39936     4.39936
  Ewald     -88.96849   -88.96849   -87.30172    -0.00000     0.00000    -0.00000
  Hartree     0.68769     0.68769     1.08227     0.00000     0.00000     0.00000
  E(xc)     -25.44800   -25.44800   -25.34015     0.00005     0.00001     0.00001
  Local     -13.37318   -13.37318   -13.14748    -0.00003    -0.00005    -0.00005
  n-local    77.53580    77.26317    75.71866     1.15718    -0.40176    -0.55575
  augment   -12.08720   -12.08720   -11.88649     0.00004     0.00005     0.00005
  Kinetic    59.83485    54.92260    56.47142     3.63930    -1.54832    -3.27163
  Fock        0.00000     0.00000     0.00000     0.00000     0.00000     0.00000
  Total      -0.01161    -0.01161    -0.00413     0.00000     0.00000     0.00000
  in kB      -0.60765    -0.60765    -0.21636     0.00000     0.00000     0.00000

 VOLUME and BASIS-vectors are now :
  energy-cutoff  :      250.00
  volume of cell :       30.61
      direct lattice vectors                 reciprocal lattice vectors
    -2.421413357  2.421413357  1.305049241    -0.000000000  0.206490973  0.383127306
     2.421413357 -2.421413357  1.305049241     0.206490973 -0.000000000  0.383127306
     2.421413357  2.421413357 -1.305049241     0.206490973  0.206490973  0.000000000

  length of vectors
     3.664647161  3.664647161  3.664647161     0.435229887  0.435229887  0.292022334

 FORCES acting on ions
    electron-ion (+dipol)            ewald-force                    non-local-force                 convergence-correction
   0.898E-05 -.898E-05 0.664E-14   -.987E-14 0.291E-14 -.444E-14   -.254E-16 0.683E-16 0.579E-17   0.516E-07 -.516E-07 -.977E-16
   -.898E-05 0.898E-05 -.544E-14   0.972E-14 -.306E-14 0.472E-14   0.174E-16 -.520E-16 -.472E-17   -.516E-07 0.516E-07 0.123E-15
   -.153E-13 0.120E-13 0.119E-14   -.151E-15 -.150E-15 0.282E-15   -.798E-17 0.163E-16 0.107E-17   -.498E-17 -.123E-15 0.256E-16

 POSITION                                       TOTAL-FORCE (eV/Angst)
      2.42141     -0.00000      0.65252        -0.000000     -0.000000      0.000000
     -0.00000      0.00000      0.00000         0.000000      0.000000     -0.000000
    total drift:                               -0.000000      0.000000      0.000000

  FREE ENERGIE OF THE ION-ELECTRON SYSTEM (eV)
  free  energy   TOTEN  =       -10.24372507 eV

  energy  without entropy=      -10.22765879  energy(sigma->0) =      -10.23569193

 d Force = 0.0000000E+00[ 0.000E+00, 0.000E+00]  d Energy = 0.1603872E-04-0.160E-04
 d Force = 0.0000000E+00[ 0.000E+00, 0.000E+00]  d Ewald  = 0.1842746E-02-0.184E-02

 reached required accuracy - stopping structural energy minimisation
 writing wavefunctions