 vasp.5.4.4.18Apr17-6-g9f103f2a35 (build Dec 09 2018 21:25:21) complex

 executed on IFC18.0.1.163_CrayMP date 2019.03.20  09:11:57

 INCAR:
 POTCAR:   PAW_PBE Si 05Jan2001

 POTCAR:   PAW_PBE Si 05Jan2001
   VRHFIN =Si: s2p2

   TITEL  = PAW_PBE Si 05Jan2001
   POMASS =   28.085; ZVAL   =    4.000    mass and valenz
   ENMAX  =  245.345; ENMIN  =  184.009 eV
   QCUT   =   -4.246; QGAM   =    8.493    optimization parameters

   Description
     l     E      TYP  RCUT    TYP  RCUT
     0   .000     23  1.900
     0   .000     23  1.900
     1   .000     23  1.900
     1   .000     23  1.900
     2   .000      7  1.900

 PAW_PBE Si 05Jan2001                   :

 POSCAR: Si2
  positions in direct lattice
 exchange correlation table for  LEXCH =        8
   RHO(1)=    0.500       N(1)  =     2000
   RHO(2)=  100.500       N(2)  =     4000

 ion  position               nearest neighbor table
   1  0.250  0.750  0.500-   2 2.53   2 2.53   2 2.53   2 2.53   2 3.11   2 3.11   2 3.11   2 3.11

   2  0.000  0.000  0.000-   1 2.53   1 2.53   1 2.53   1 2.53   1 3.11   1 3.11   1 3.11   1 3.11

  LATTYP: Found a body centered tetragonal cell.
 ALAT       =     4.9000000000
 C/A-ratio  =     0.5200000000

  Lattice vectors:

 A1 = (  -2.4500000000,   2.4500000000,   1.2740000000)
 A2 = (   2.4500000000,  -2.4500000000,   1.2740000000)
 A3 = (   2.4500000000,   2.4500000000,  -1.2740000000)

Analysis of symmetry for initial positions (statically):
 Subroutine PRICEL returns:
 Original cell was already a primitive cell.

 Routine SETGRP: Setting up the symmetry group for a
 body centered tetragonal supercell.

 Subroutine GETGRP returns: Found 16 space group operations
 (whereof  8 operations were pure point group operations)
 out of a pool of 16 trial point group operations.

The static configuration has the point symmetry D_2d.
 The point group associated with its full space group is D_4h.

Analysis of symmetry for dynamics (positions and initial velocities):
 Subroutine PRICEL returns:
 Original cell was already a primitive cell.

 Routine SETGRP: Setting up the symmetry group for a
 body centered tetragonal supercell.

 Subroutine GETGRP returns: Found 16 space group operations
 (whereof  8 operations were pure point group operations)
 out of a pool of 16 trial point group operations.

The dynamic configuration has the point symmetry D_2d.
 The point group associated with its full space group is D_4h.

 Subroutine INISYM returns: Found 16 space group operations
 (whereof  8 operations are pure point group operations),
 and found     1 'primitive' translations

 KPOINTS: Automatic kpoint scheme

Automatic generation of k-mesh.
Space group operators:
 irot       det(A)        alpha          n_x          n_y          n_z        tau_x        tau_y        tau_z
    1     1.000000     0.000000     1.000000     0.000000     0.000000     0.000000     0.000000     0.000000
    2    -1.000000    90.000000    -0.000000    -0.000000    -1.000000     0.000000     0.000000     0.000000
    3     1.000000   180.000000    -0.000000    -0.000000    -1.000000     0.000000     0.000000     0.000000
    4    -1.000000    90.000000    -0.000000     0.000000     1.000000     0.000000     0.000000     0.000000
    5    -1.000000   180.000000     0.000000    -1.000000     0.000000     0.000000     0.000000     0.000000
    6     1.000000   180.000000     0.707107     0.707107    -0.000000     0.000000     0.000000     0.000000
    7    -1.000000   180.000000     1.000000     0.000000     0.000000     0.000000     0.000000     0.000000
    8     1.000000   180.000000     0.707107    -0.707107     0.000000     0.000000     0.000000     0.000000
    9    -1.000000     0.000000     1.000000     0.000000     0.000000     0.250000     0.750000     0.500000
   10     1.000000    90.000000    -0.000000    -0.000000    -1.000000     0.250000     0.750000     0.500000
   11    -1.000000   180.000000    -0.000000    -0.000000    -1.000000     0.250000     0.750000     0.500000
   12     1.000000    90.000000    -0.000000     0.000000     1.000000     0.250000     0.750000     0.500000
   13     1.000000   180.000000     0.000000    -1.000000     0.000000     0.250000     0.750000     0.500000
   14    -1.000000   180.000000     0.707107     0.707107    -0.000000     0.250000     0.750000     0.500000
   15     1.000000   180.000000     1.000000     0.000000     0.000000     0.250000     0.750000     0.500000
   16    -1.000000   180.000000     0.707107    -0.707107     0.000000     0.250000     0.750000     0.500000

 Subroutine IBZKPT returns following result:

 Found    159 irreducible k-points:

 Following reciprocal coordinates:
            Coordinates               Weight
  0.041667  0.041667  0.041667    128.000000
  0.125000  0.041667  0.041667    256.000000
  0.208333  0.041667  0.041667    256.000000
  0.291667  0.041667  0.041667    256.000000
  0.375000  0.041667  0.041667    256.000000
  0.458333  0.041667  0.041667    128.000000
 -0.041667  0.041667  0.041667     64.000000
  0.125000  0.125000  0.041667    128.000000
  0.208333  0.125000  0.041667    256.000000
  0.291667  0.125000  0.041667    256.000000
  0.375000  0.125000  0.041667    256.000000
  0.458333  0.125000  0.041667    256.000000
 -0.458333  0.125000  0.041667    256.000000
 -0.375000  0.125000  0.041667    256.000000
 -0.291667  0.125000  0.041667    256.000000
 -0.208333  0.125000  0.041667    128.000000
 -0.125000  0.125000  0.041667    128.000000
 -0.041667  0.125000  0.041667    128.000000
  0.208333  0.208333  0.041667    128.000000
  0.291667  0.208333  0.041667    256.000000
  0.375000  0.208333  0.041667    256.000000
  0.458333  0.208333  0.041667    256.000000
 -0.458333  0.208333  0.041667    256.000000
 -0.375000  0.208333  0.041667    256.000000
 -0.291667  0.208333  0.041667    128.000000
 -0.208333  0.208333  0.041667    128.000000
 -0.125000  0.208333  0.041667    256.000000
 -0.041667  0.208333  0.041667    128.000000
  0.291667  0.291667  0.041667    128.000000
  0.375000  0.291667  0.041667    256.000000
  0.458333  0.291667  0.041667    256.000000
 -0.458333  0.291667  0.041667    256.000000
 -0.375000  0.291667  0.041667    128.000000
 -0.291667  0.291667  0.041667    128.000000
 -0.208333  0.291667  0.041667    256.000000
 -0.125000  0.291667  0.041667    256.000000
 -0.041667  0.291667  0.041667    128.000000
  0.375000  0.375000  0.041667    128.000000
  0.458333  0.375000  0.041667    256.000000
 -0.458333  0.375000  0.041667    128.000000
 -0.375000  0.375000  0.041667    128.000000
 -0.291667  0.375000  0.041667    256.000000
 -0.208333  0.375000  0.041667    256.000000
 -0.125000  0.375000  0.041667    256.000000
 -0.041667  0.375000  0.041667    128.000000
  0.458333  0.458333  0.041667     64.000000
 -0.458333  0.458333  0.041667    128.000000
 -0.375000  0.458333  0.041667    256.000000
 -0.291667  0.458333  0.041667    256.000000
 -0.208333  0.458333  0.041667    256.000000
 -0.125000  0.458333  0.041667    256.000000
 -0.041667  0.458333  0.041667    128.000000
 -0.458333 -0.458333  0.041667    128.000000
 -0.375000 -0.458333  0.041667    256.000000
 -0.291667 -0.458333  0.041667    256.000000
 -0.208333 -0.458333  0.041667    256.000000
 -0.125000 -0.458333  0.041667    256.000000
 -0.041667 -0.458333  0.041667    128.000000
 -0.375000 -0.375000  0.041667    128.000000
 -0.291667 -0.375000  0.041667    256.000000
[...]
 -0.291667  0.458333  0.291667    128.000000
 -0.458333 -0.458333  0.291667    128.000000
 -0.375000 -0.458333  0.291667    256.000000
 -0.291667 -0.458333  0.291667    128.000000
 -0.375000 -0.375000  0.291667    128.000000
 -0.291667 -0.375000  0.291667    128.000000
 -0.291667 -0.291667  0.291667     32.000000
 -0.375000  0.375000  0.375000     64.000000
 -0.458333  0.458333  0.375000    128.000000
 -0.375000  0.458333  0.375000    128.000000
 -0.458333 -0.458333  0.375000    128.000000
 -0.375000 -0.458333  0.375000    128.000000
 -0.375000 -0.375000  0.375000     32.000000
 -0.458333  0.458333  0.458333     64.000000
 -0.458333 -0.458333  0.458333     32.000000

 Following cartesian coordinates:
            Coordinates               Weight
  0.017007  0.017007  0.032705    128.000000
  0.017007  0.034014  0.065411    256.000000
  0.017007  0.051020  0.098116    256.000000
  0.017007  0.068027  0.130822    256.000000
  0.017007  0.085034  0.163527    256.000000
  0.017007  0.102041  0.196232    128.000000
  0.017007 -0.000000  0.000000     64.000000
  0.034014  0.034014  0.098116    128.000000
  0.034014  0.051020  0.130822    256.000000
  0.034014  0.068027  0.163527    256.000000
  0.034014  0.085034  0.196232    256.000000
  0.034014  0.102041  0.228938    256.000000
  0.034014 -0.085034 -0.130822    256.000000
  0.034014 -0.068027 -0.098116    256.000000
  0.034014 -0.051020 -0.065411    256.000000
  0.034014 -0.034014 -0.032705    128.000000
  0.034014 -0.017007  0.000000    128.000000
  0.034014  0.000000  0.032705    128.000000
  0.051020  0.051020  0.163527    128.000000
  0.051020  0.068027  0.196232    256.000000
  0.051020  0.085034  0.228938    256.000000
  0.051020  0.102041  0.261643    256.000000
  0.051020 -0.085034 -0.098116    256.000000
  0.051020 -0.068027 -0.065411    256.000000
  0.051020 -0.051020 -0.032705    128.000000
  0.051020 -0.034014 -0.000000    128.000000
  0.051020 -0.017007  0.032705    256.000000
  0.051020  0.000000  0.065411    128.000000
  0.068027  0.068027  0.228938    128.000000
  0.068027  0.085034  0.261643    256.000000
  0.068027  0.102041  0.294349    256.000000
  0.068027 -0.085034 -0.065411    256.000000
  0.068027 -0.068027 -0.032705    128.000000
  0.068027 -0.051020 -0.000000    128.000000
  0.068027 -0.034014  0.032705    256.000000
  0.068027 -0.017007  0.065411    256.000000
  0.068027  0.000000  0.098116    128.000000
  0.085034  0.085034  0.294349    128.000000
  0.085034  0.102041  0.327054    256.000000
  0.085034 -0.085034 -0.032705    128.000000
  0.085034 -0.068027  0.000000    128.000000
  0.085034 -0.051020  0.032705    256.000000
  0.085034 -0.034014  0.065411    256.000000
  0.085034 -0.017007  0.098116    256.000000
  0.085034  0.000000  0.130822    128.000000
  0.102041  0.102041  0.359759     64.000000
  0.102041 -0.085034 -0.000000    128.000000
  0.102041 -0.068027  0.032705    256.000000
  0.102041 -0.051020  0.065411    256.000000
  0.102041 -0.034014  0.098116    256.000000
  0.102041 -0.017007  0.130822    256.000000
  0.102041  0.000000  0.163527    128.000000
 -0.085034 -0.085034 -0.359759    128.000000
 -0.085034 -0.068027 -0.327054    256.000000
 -0.085034 -0.051020 -0.294349    256.000000
 -0.085034 -0.034014 -0.261643    256.000000
 -0.085034 -0.017007 -0.228938    256.000000
 -0.085034 -0.000000 -0.196232    128.000000
 -0.068027 -0.068027 -0.294349    128.000000
 -0.068027 -0.051020 -0.261643    256.000000
[...]
  0.153061  0.000000  0.065411    128.000000
 -0.034014 -0.034014 -0.359759    128.000000
 -0.034014 -0.017007 -0.327054    256.000000
 -0.034014  0.000000 -0.294349    128.000000
 -0.017007 -0.017007 -0.294349    128.000000
 -0.017007  0.000000 -0.261643    128.000000
[...]
 k-point 57 :  -0.1250-0.4583 0.0417  plane waves:     199
 k-point 58 :  -0.0417-0.4583 0.0417  plane waves:     201
 k-point 59 :  -0.3750-0.3750 0.0417  plane waves:     198
 k-point 60 :  -0.2917-0.3750 0.0417  plane waves:     200
[...]
 k-point 85 :  -0.1250 0.2083 0.1250  plane waves:     191
 k-point 86 :   0.2917 0.2917 0.1250  plane waves:     197
 k-point 87 :   0.3750 0.2917 0.1250  plane waves:     191
 k-point 88 :   0.4583 0.2917 0.1250  plane waves:     195
 k-point 89 :  -0.2917 0.2917 0.1250  plane waves:     191
 k-point 90 :  -0.2083 0.2917 0.1250  plane waves:     194
 k-point 91 :  -0.1250 0.2917 0.1250  plane waves:     197
 k-point 92 :   0.3750 0.3750 0.1250  plane waves:     194
 k-point 93 :  -0.3750 0.3750 0.1250  plane waves:     193
 k-point 94 :  -0.2917 0.3750 0.1250  plane waves:     193
 k-point 95 :  -0.2083 0.3750 0.1250  plane waves:     194
 k-point 96 :  -0.1250 0.3750 0.1250  plane waves:     197
 k-point 97 :  -0.4583 0.4583 0.1250  plane waves:     192
 k-point 98 :  -0.3750 0.4583 0.1250  plane waves:     190
 k-point 99 :  -0.2917 0.4583 0.1250  plane waves:     191
 k-point ** :  -0.2083 0.4583 0.1250  plane waves:     194
 k-point ** :  -0.1250 0.4583 0.1250  plane waves:     199
 k-point ** :  -0.4583-0.4583 0.1250  plane waves:     189
 k-point ** :  -0.3750-0.4583 0.1250  plane waves:     194
 k-point ** :  -0.2917-0.4583 0.1250  plane waves:     196
 k-point ** :  -0.2083-0.4583 0.1250  plane waves:     197
 k-point ** :  -0.1250-0.4583 0.1250  plane waves:     197
 k-point ** :  -0.3750-0.3750 0.1250  plane waves:     196
 k-point ** :  -0.2917-0.3750 0.1250  plane waves:     196
 k-point ** :  -0.2083-0.3750 0.1250  plane waves:     195
 k-point ** :  -0.1250-0.3750 0.1250  plane waves:     199
 k-point ** :  -0.2917-0.2917 0.1250  plane waves:     193
 k-point ** :  -0.2083-0.2917 0.1250  plane waves:     195
 k-point ** :  -0.1250-0.2917 0.1250  plane waves:     200
 k-point ** :  -0.2083-0.2083 0.1250  plane waves:     200
 k-point ** :  -0.1250-0.2083 0.1250  plane waves:     208
 k-point ** :  -0.1250-0.1250 0.1250  plane waves:     203
 k-point ** :   0.2083 0.2083 0.2083  plane waves:     194
 k-point ** :   0.2917 0.2083 0.2083  plane waves:     200
 k-point ** :  -0.2083 0.2083 0.2083  plane waves:     198
 k-point ** :   0.2917 0.2917 0.2083  plane waves:     202
 k-point ** :  -0.2917 0.2917 0.2083  plane waves:     195
 k-point ** :  -0.2083 0.2917 0.2083  plane waves:     195
 k-point ** :  -0.3750 0.3750 0.2083  plane waves:     192
 k-point ** :  -0.2917 0.3750 0.2083  plane waves:     192
 k-point ** :  -0.2083 0.3750 0.2083  plane waves:     191
 k-point ** :  -0.4583 0.4583 0.2083  plane waves:     192
 k-point ** :  -0.3750 0.4583 0.2083  plane waves:     193
 k-point ** :  -0.2917 0.4583 0.2083  plane waves:     192
 k-point ** :  -0.2083 0.4583 0.2083  plane waves:     196
 k-point ** :  -0.4583-0.4583 0.2083  plane waves:     192
 k-point ** :  -0.3750-0.4583 0.2083  plane waves:     195
 k-point ** :  -0.2917-0.4583 0.2083  plane waves:     197
 k-point ** :  -0.2083-0.4583 0.2083  plane waves:     195
 k-point ** :  -0.3750-0.3750 0.2083  plane waves:     198
 k-point ** :  -0.2917-0.3750 0.2083  plane waves:     196
 k-point ** :  -0.2083-0.3750 0.2083  plane waves:     193
 k-point ** :  -0.2917-0.2917 0.2083  plane waves:     191
 k-point ** :  -0.2083-0.2917 0.2083  plane waves:     192
 k-point ** :  -0.2083-0.2083 0.2083  plane waves:     199
 k-point ** :  -0.2917 0.2917 0.2917  plane waves:     192
 k-point ** :  -0.3750 0.3750 0.2917  plane waves:     194
 k-point ** :  -0.2917 0.3750 0.2917  plane waves:     193
 k-point ** :  -0.4583 0.4583 0.2917  plane waves:     191
 k-point ** :  -0.3750 0.4583 0.2917  plane waves:     196
 k-point ** :  -0.2917 0.4583 0.2917  plane waves:     199
 k-point ** :  -0.4583-0.4583 0.2917  plane waves:     197
 k-point ** :  -0.3750-0.4583 0.2917  plane waves:     199
 k-point ** :  -0.2917-0.4583 0.2917  plane waves:     196
 k-point ** :  -0.3750-0.3750 0.2917  plane waves:     199
 k-point ** :  -0.2917-0.3750 0.2917  plane waves:     193
 k-point ** :  -0.2917-0.2917 0.2917  plane waves:     191
 k-point ** :  -0.3750 0.3750 0.3750  plane waves:     194
 k-point ** :  -0.4583 0.4583 0.3750  plane waves:     198
 k-point ** :  -0.3750 0.4583 0.3750  plane waves:     197
 k-point ** :  -0.4583-0.4583 0.3750  plane waves:     199
 k-point ** :  -0.3750-0.4583 0.3750  plane waves:     203
 k-point ** :  -0.3750-0.3750 0.3750  plane waves:     203
 k-point ** :  -0.4583 0.4583 0.4583  plane waves:     198
 k-point ** :  -0.4583-0.4583 0.4583  plane waves:     199

 maximum and minimum number of plane-waves per node :       208      183

 maximum number of plane-waves:       208
 maximum index in each direction:
   IXMAX=    4   IYMAX=    4   IZMAX=    4
   IXMIN=   -4   IYMIN=   -4   IZMIN=   -4

 serial   3D FFT for wavefunctions
 parallel 3D FFT for charge:
    minimum data exchange during FFTs selected (reduces bandwidth)

 Broyden mixing: mesh for mixing (old mesh)
   NGX =  9   NGY =  9   NGZ =  9
  (NGX  = 28   NGY  = 28   NGZ  = 28)
  gives a total of    729 points

 initial charge density was supplied:
 charge density of overlapping atoms calculated
 number of electron       8.0000000 magnetization
 keeping initial charge density in first step

 Maximum index for augmentation-charges          442 (set IRDMAX)

 First call to EWALD:  gamma=   0.567
 Maximum number of real-space cells 4x 4x 3
 Maximum number of reciprocal cells 3x 3x 3

--------------------------------------- Iteration      1(   1)  ---------------------------------------

 eigenvalue-minimisations  :  2600
 total energy-change (2. order) :-0.2949391E+01  (-0.2038580E+03)
 number of electron       8.0000000 magnetization
 augmentation part        8.0000000 magnetization

 Free energy of the ion-electron system (eV)
  alpha Z        PSCENC =         4.40202223
  Ewald energy   TEWEN  =      -265.18101312
  -Hartree energ DENC   =        -2.30415367
  -exchange      EXHF   =         0.00000000
  -V(xc)+E(xc)   XCENC  =       -17.81545108
  PAW double counting   =        65.95520812      -30.76852678
  entropy T*S    EENTRO =        -0.01225100
  eigenvalues    EBANDS =        36.66230208
  atomic energy  EATOM  =       206.11247263
  Solvation  Ediel_sol  =         0.00000000
  free energy    TOTEN  =        -2.94939060 eV

  energy without entropy =       -2.93713959  energy(sigma->0) =       -2.94326510

[...]

 Broyden mixing:
  rms(total) = 0.14932E+00    rms(broyden)= 0.14930E+00
  rms(prec ) = 0.33481E+00
  weight for this iteration     100.00

[...]

 eigenvalue-minimisations  :  3168
 total energy-change (2. order) : 0.6277030E-02  (-0.1797255E-03)
 number of electron       7.9999993 magnetization
 augmentation part       -0.4689789 magnetization

[...]

 eigenvalues of (default mixing * dielectric matrix)
  average eigenvalue GAMMA=   2.6657
  2.6657

[...]

 average (electrostatic) potential at core
  the test charge radii are     0.9892
  (the norm of the test charge is              1.0000)
       1 -80.5508       2 -80.5508

 E-fermi :   9.0961     XC(G=0): -10.8935     alpha+bet :-15.6819

 k-point     1 :       0.0417    0.0417    0.0417
  band No.  band energies     occupation
      1      -4.3773      2.00000
      2       4.9687      2.00000
      3       6.5129      2.00000
      4       7.5153      2.00000
      5      11.2644      0.00000
      6      15.4324      0.00000
      7      16.5447      0.00000
      8      17.3364      0.00000

[...]

 soft charge-density along one line, spin component           1
         0         1         2         3         4         5         6         7         8         9
 total charge-density along one line

------------------------ aborting loop because EDIFF is reached ----------------------------------------

  FORCE on cell =-STRESS in cart. coord.  units (eV):
  Direction    XX          YY          ZZ          XY          YZ          ZX
  Alpha Z     4.40202     4.40202     4.40202
  Ewald     -90.96023   -90.96023   -83.26083    -0.00000     0.00000     0.00000
  Hartree     0.55192     0.55192     1.39637     0.00000     0.00000     0.00000
  E(xc)     -25.43948   -25.43948   -25.39241     0.00003     0.00001     0.00001
  Local     -11.30161   -11.30161   -17.64945    -0.00005    -0.00005    -0.00005
  n-local    77.18829    77.21535    76.78560     1.08966    -0.41441    -0.47118
  augment   -12.03243   -12.03243   -11.95927     0.00005     0.00005     0.00005
  Kinetic    56.95459    57.23960    56.78185     3.38717    -1.95419    -3.47312
  Fock        0.00000     0.00000     0.00000     0.00000     0.00000     0.00000
  Total      -0.48089    -0.48089     1.10389    -0.00000     0.00000     0.00000
  in kB     -25.18798   -25.18798    57.81954    -0.00000     0.00000     0.00000

 VOLUME and BASIS-vectors are now :
  energy-cutoff  :      200.00
  volume of cell :       30.59
      direct lattice vectors                 reciprocal lattice vectors
    -2.450000000  2.450000000  1.274000000     0.000000000  0.204081633  0.392464678
     2.450000000 -2.450000000  1.274000000     0.204081633  0.000000000  0.392464678
     2.450000000  2.450000000 -1.274000000     0.204081633  0.204081633 -0.000000000

[...]

 FORCES acting on ions
    electron-ion (+dipol)            ewald-force                    non-local-force                 convergence-correction
   0.129E-05 -.129E-05 0.127E-13   0.198E-14 0.156E-15 0.342E-17   -.115E-16 0.440E-16 -.128E-16   -.443E-07 0.443E-07 -.199E-15
   -.129E-05 0.129E-05 -.593E-14   -.185E-14 0.943E-16 0.891E-15   0.263E-16 -.841E-17 0.164E-16   0.443E-07 -.443E-07 -.184E-15
   -.121E-13 0.166E-13 0.680E-14   0.139E-15 0.250E-15 0.894E-15   0.147E-16 0.356E-16 0.357E-17   -.260E-16 -.253E-15 -.383E-15

 POSITION                                       TOTAL-FORCE (eV/Angst)
      2.45000      0.00000      0.63700        -0.000000      0.000000      0.000000
      0.00000      0.00000      0.00000         0.000000     -0.000000     -0.000000
    total drift:                               -0.000000      0.000000      0.000000

  FREE ENERGIE OF THE ION-ELECTRON SYSTEM (eV)
  free  energy   TOTEN  =       -10.19590475 eV

  energy  without entropy=      -10.18205530  energy(sigma->0) =      -10.18898002

[...]

 d Force = 0.0000000E+00[ 0.000E+00, 0.000E+00]  d Energy = 0.2296403E-01-0.230E-01
 d Force = 0.0000000E+00[ 0.000E+00, 0.000E+00]  d Ewald  =-0.1470685E+00 0.147E+00

 Steepest descent step on ions:
 trial-energy change:   -0.022964  1 .order   -0.023224   -0.040550   -0.005898
  (g-gl).g = 0.405E-01      g.g   = 0.405E-01  gl.gl    = 0.000E+00
 g(Force)  = 0.120E-45   g(Stress)= 0.405E-01 ortho     = 0.000E+00
 gamma     =   0.00000
 trial     =   1.00000
 opt step  =   1.17021  (harmonic =   1.17021) maximal distance =0.00000000
 next E    =   -10.219631   (d E  =  -0.02373)

[...]

 d Force = 0.0000000E+00[ 0.000E+00, 0.000E+00]  d Energy =-0.1189826E-02 0.119E-02
 d Force = 0.0000000E+00[ 0.000E+00, 0.000E+00]  d Ewald  =-0.7061722E-01 0.706E-01

[...]

 eigenvalues of (default mixing * dielectric matrix)
  average eigenvalue GAMMA=   2.2859
  2.2859

[...]

 d Force = 0.0000000E+00[ 0.000E+00, 0.000E+00]  d Energy = 0.1030034E-02-0.103E-02
 d Force = 0.0000000E+00[ 0.000E+00, 0.000E+00]  d Ewald  = 0.4536483E-01-0.454E-01

[...]

 d Force = 0.0000000E+00[ 0.000E+00, 0.000E+00]  d Energy = 0.2119367E-04-0.212E-04
 d Force = 0.0000000E+00[ 0.000E+00, 0.000E+00]  d Ewald  = 0.9179961E-02-0.918E-02

[...]

 d Force = 0.0000000E+00[ 0.000E+00, 0.000E+00]  d Energy =-0.1868789E-04 0.187E-04
 d Force = 0.0000000E+00[ 0.000E+00, 0.000E+00]  d Ewald  = 0.3801607E-02-0.380E-02

[...]

 eigenvalue-minimisations  :  1296
 total energy-change (2. order) : 0.3204974E-08  (-0.9982576E-09)
 number of electron       7.9999985 magnetization
 augmentation part       -0.4710970 magnetization

[...]

 Broyden mixing:
  rms(total) = 0.91736E-05    rms(broyden)= 0.88188E-05
  rms(prec ) = 0.26976E-04
  weight for this iteration     100.00

[...]

--------------------------------------- Iteration     15(   2)  ---------------------------------------

 eigenvalue-minimisations  :  1296
 total energy-change (2. order) :-0.3518608E-09  (-0.6143436E-10)
 number of electron       7.9999985 magnetization
 augmentation part       -0.4710967 magnetization

 Free energy of the ion-electron system (eV)
  alpha Z        PSCENC =         4.38684457
  Ewald energy   TEWEN  =      -264.99250871
  -Hartree energ DENC   =        -2.47198116
  -exchange      EXHF   =         0.00000000
  -V(xc)+E(xc)   XCENC  =       -17.58154726
  PAW double counting   =        71.40943986      -36.33259321
  entropy T*S    EENTRO =        -0.01249548
  eigenvalues    EBANDS =        29.26274954
  atomic energy  EATOM  =       206.11247263
  Solvation  Ediel_sol  =         0.00000000
  free energy    TOTEN  =       -10.21961922 eV

  energy without entropy =      -10.20712374  energy(sigma->0) =      -10.21337148

 average (electrostatic) potential at core
  the test charge radii are     0.9892
  (the norm of the test charge is              1.0000)
       1 -80.5862       2 -80.5862

 E-fermi :   9.0954     XC(G=0): -10.8803     alpha+bet :-15.6278

[...]

 k-point   159 :      -0.4583   -0.4583    0.4583
  band No.  band energies     occupation
      1       0.8473      2.00000
      2       0.8648      2.00000
      3       2.4676      2.00000
      4       2.4676      2.00000
      5      12.2952      0.00000
      6      18.1712      0.00000
      7      21.4314      0.00000
      8      21.4593      0.00000

 soft charge-density along one line, spin component           1
         0         1         2         3         4         5         6         7         8         9
 total charge-density along one line

------------------------ aborting loop because EDIFF is reached ----------------------------------------

  FORCE on cell =-STRESS in cart. coord.  units (eV):
  Direction    XX          YY          ZZ          XY          YZ          ZX
  Alpha Z     4.38684     4.38684     4.38684
  Ewald     -88.33606   -88.33606   -88.32063    -0.00000     0.00000     0.00000
  Hartree     0.73076     0.73076     1.01047     0.00000    -0.00000    -0.00000
  E(xc)     -25.44339   -25.44339   -25.32538     0.00003     0.00001     0.00001
  Local     -14.02881   -14.02881   -12.21888    -0.00005    -0.00005    -0.00005
  n-local    77.70758    77.64243    75.69735     1.21488    -0.44497    -0.54077
  augment   -12.06006   -12.06006   -11.85402     0.00004     0.00005     0.00005
  Kinetic    56.18055    57.90392    56.60511     3.35063    -1.78954    -2.93728
  Fock        0.00000     0.00000     0.00000     0.00000     0.00000     0.00000
  Total      -0.03348    -0.03348    -0.01913     0.00000     0.00000     0.00000
  in kB      -1.74761    -1.74761    -0.99856     0.00000     0.00000     0.00000

 VOLUME and BASIS-vectors are now :
  energy-cutoff  :      200.00
  volume of cell :       30.69
      direct lattice vectors                 reciprocal lattice vectors
    -2.415449083  2.415449083  1.315242417    -0.000000000  0.207000844  0.380158056
     2.415449083 -2.415449083  1.315242417     0.207000844 -0.000000000  0.380158056
     2.415449083  2.415449083 -1.315242417     0.207000844  0.207000844 -0.000000000

  length of vectors
     3.660416802  3.660416802  3.660416802     0.432861984  0.432861984  0.292743402

 FORCES acting on ions
    electron-ion (+dipol)            ewald-force                    non-local-force                 convergence-correction
   0.112E-05 -.112E-05 0.118E-14   0.682E-15 0.544E-14 -.323E-14   0.910E-17 0.299E-16 -.198E-16   0.129E-09 -.129E-09 -.402E-16
   -.112E-05 0.112E-05 0.101E-13   -.696E-15 -.545E-14 0.265E-14   -.348E-16 -.209E-16 0.235E-16   -.129E-09 0.129E-09 -.132E-15
   -.203E-13 0.130E-13 0.113E-13   -.144E-16 -.153E-16 -.576E-15   -.257E-16 0.898E-17 0.377E-17   -.104E-15 -.442E-16 -.173E-15

 POSITION                                       TOTAL-FORCE (eV/Angst)
      2.41545     -0.00000      0.65762        -0.000000     -0.000000      0.000000
      0.00000     -0.00000     -0.00000         0.000000      0.000000     -0.000000
    total drift:                               -0.000000      0.000000      0.000000

  FREE ENERGIE OF THE ION-ELECTRON SYSTEM (eV)
  free  energy   TOTEN  =       -10.21961922 eV

  energy  without entropy=      -10.20712374  energy(sigma->0) =      -10.21337148

 d Force = 0.0000000E+00[ 0.000E+00, 0.000E+00]  d Energy = 0.4403901E-07-0.440E-07
 d Force = 0.0000000E+00[ 0.000E+00, 0.000E+00]  d Ewald  =-0.2957721E-04 0.296E-04

 writing wavefunctions