 vasp.5.4.4.18Apr17-6-g9f103f2a35 (build Dec 09 2018 21:25:21) complex

 executed on IFC18.0.1.163_CrayMP date 2019.03.19  13:27:55

 INCAR:
 POTCAR:   PAW_PBE Si 05Jan2001

 POTCAR:   PAW_PBE Si 05Jan2001
   VRHFIN =Si: s2p2

   TITEL  = PAW_PBE Si 05Jan2001
   POMASS =   28.085; ZVAL   =    4.000    mass and valenz
   ENMAX  =  245.345; ENMIN  =  184.009 eV
   QCUT   =   -4.246; QGAM   =    8.493    optimization parameters

   Description
     l     E      TYP  RCUT    TYP  RCUT
     0   .000     23  1.900
     0   .000     23  1.900
     1   .000     23  1.900
     1   .000     23  1.900
     2   .000      7  1.900

 PAW_PBE Si 05Jan2001                   :

 POSCAR: Si2
  positions in direct lattice
 exchange correlation table for  LEXCH =        8
   RHO(1)=    0.500       N(1)  =     2000
   RHO(2)=  100.500       N(2)  =     4000

 ion  position               nearest neighbor table
   1  0.500  0.500  0.500-   2 2.35   2 2.35   2 2.35   2 2.35
   2  0.750  0.750  0.750-   1 2.35   1 2.35   1 2.35   1 2.35

  LATTYP: Found a face centered cubic cell.
 ALAT       =     5.4300000000

  Lattice vectors:

 A1 = (   0.0000000000,   2.7150000000,   2.7150000000)
 A2 = (   2.7150000000,   0.0000000000,   2.7150000000)
 A3 = (   2.7150000000,   2.7150000000,   0.0000000000)

Analysis of symmetry for initial positions (statically):
 Subroutine PRICEL returns:
 Original cell was already a primitive cell.

 Routine SETGRP: Setting up the symmetry group for a
 face centered cubic supercell.

 Subroutine GETGRP returns: Found 48 space group operations
 (whereof 24 operations were pure point group operations)
 out of a pool of 48 trial point group operations.

The static configuration has the point symmetry T_d .
 The point group associated with its full space group is O_h .

Analysis of symmetry for dynamics (positions and initial velocities):
 Subroutine PRICEL returns:
 Original cell was already a primitive cell.

 Routine SETGRP: Setting up the symmetry group for a
 face centered cubic supercell.

 Subroutine GETGRP returns: Found 48 space group operations
 (whereof 24 operations were pure point group operations)
 out of a pool of 48 trial point group operations.

The dynamic configuration has the point symmetry T_d .
 The point group associated with its full space group is O_h .

 Subroutine INISYM returns: Found 48 space group operations
 (whereof 24 operations are pure point group operations),
 and found     1 'primitive' translations

 KPOINTS: Automatic kpoint scheme

Automatic generation of k-mesh.
Space group operators:
 irot       det(A)        alpha          n_x          n_y          n_z        tau_x        tau_y        tau_z
    1     1.000000     0.000001     1.000000     0.000000     0.000000     0.000000     0.000000     0.000000
    2     1.000000   120.000000    -0.577350    -0.577350    -0.577350     0.000000     0.000000     0.000000
    3     1.000000   120.000000     0.577350     0.577350     0.577350     0.000000     0.000000     0.000000
    4    -1.000000    90.000000    -0.000000    -0.000000    -1.000000     0.000000     0.000000     0.000000
    5    -1.000000   180.000000    -0.000000     0.707107     0.707107     0.000000     0.000000     0.000000
    6    -1.000000    90.000000    -0.000000     1.000000    -0.000000     0.000000     0.000000     0.000000
    7     1.000000   180.000000     0.000000     0.000000    -1.000000     0.000000     0.000000     0.000000
    8     1.000000   120.000000    -0.577350     0.577350     0.577350     0.000000     0.000000     0.000000
    9     1.000000   120.000000    -0.577350     0.577350    -0.577350     0.000000     0.000000     0.000000
   10    -1.000000    90.000000     0.000000     0.000000     1.000000     0.000000     0.000000     0.000000
   11    -1.000000    90.000000    -1.000000     0.000000    -0.000000     0.000000     0.000000     0.000000
   12    -1.000000   180.000000     0.707107     0.000000     0.707107     0.000000     0.000000     0.000000
   13     1.000000   120.000000     0.577350    -0.577350     0.577350     0.000000     0.000000     0.000000
   14     1.000000   120.000000    -0.577350    -0.577350     0.577350     0.000000     0.000000     0.000000
   15     1.000000   180.000000     1.000000     0.000000     0.000000     0.000000     0.000000     0.000000
   16    -1.000000    90.000000     0.000000    -1.000000     0.000000     0.000000     0.000000     0.000000
   17    -1.000000   180.000000     0.707107     0.707107    -0.000000     0.000000     0.000000     0.000000
   18    -1.000000    90.000000     1.000000     0.000000     0.000000     0.000000     0.000000     0.000000
   19     1.000000   120.000000     0.577350    -0.577350    -0.577350     0.000000     0.000000     0.000000
   20     1.000000   180.000000     0.000000    -1.000000     0.000000     0.000000     0.000000     0.000000
   21     1.000000   120.000000     0.577350     0.577350    -0.577350     0.000000     0.000000     0.000000
   22    -1.000000   180.000000    -0.000000    -0.707107     0.707107     0.000000     0.000000     0.000000
   23    -1.000000   180.000000     0.707107    -0.707107    -0.000000     0.000000     0.000000     0.000000
   24    -1.000000   180.000000    -0.707107     0.000000     0.707107     0.000000     0.000000     0.000000
   25    -1.000000     0.000001     1.000000     0.000000     0.000000     0.250000     0.250000     0.250000
   26    -1.000000   120.000000    -0.577350    -0.577350    -0.577350     0.250000     0.250000     0.250000
   27    -1.000000   120.000000     0.577350     0.577350     0.577350     0.250000     0.250000     0.250000
   28     1.000000    90.000000    -0.000000    -0.000000    -1.000000     0.250000     0.250000     0.250000
   29     1.000000   180.000000    -0.000000     0.707107     0.707107     0.250000     0.250000     0.250000
   30     1.000000    90.000000    -0.000000     1.000000    -0.000000     0.250000     0.250000     0.250000
   31    -1.000000   180.000000     0.000000     0.000000    -1.000000     0.250000     0.250000     0.250000
   32    -1.000000   120.000000    -0.577350     0.577350     0.577350     0.250000     0.250000     0.250000
   33    -1.000000   120.000000    -0.577350     0.577350    -0.577350     0.250000     0.250000     0.250000
   34     1.000000    90.000000     0.000000     0.000000     1.000000     0.250000     0.250000     0.250000
   35     1.000000    90.000000    -1.000000     0.000000    -0.000000     0.250000     0.250000     0.250000
   36     1.000000   180.000000     0.707107     0.000000     0.707107     0.250000     0.250000     0.250000
   37    -1.000000   120.000000     0.577350    -0.577350     0.577350     0.250000     0.250000     0.250000
   38    -1.000000   120.000000    -0.577350    -0.577350     0.577350     0.250000     0.250000     0.250000
   39    -1.000000   180.000000     1.000000     0.000000     0.000000     0.250000     0.250000     0.250000
   40     1.000000    90.000000     0.000000    -1.000000     0.000000     0.250000     0.250000     0.250000
   41     1.000000   180.000000     0.707107     0.707107    -0.000000     0.250000     0.250000     0.250000
   42     1.000000    90.000000     1.000000     0.000000     0.000000     0.250000     0.250000     0.250000
   43    -1.000000   120.000000     0.577350    -0.577350    -0.577350     0.250000     0.250000     0.250000
   44    -1.000000   180.000000     0.000000    -1.000000     0.000000     0.250000     0.250000     0.250000
   45    -1.000000   120.000000     0.577350     0.577350    -0.577350     0.250000     0.250000     0.250000
   46     1.000000   180.000000    -0.000000    -0.707107     0.707107     0.250000     0.250000     0.250000
   47     1.000000   180.000000     0.707107    -0.707107    -0.000000     0.250000     0.250000     0.250000
   48     1.000000   180.000000    -0.707107     0.000000     0.707107     0.250000     0.250000     0.250000

 Subroutine IBZKPT returns following result:

 Found    182 irreducible k-points:

 Following reciprocal coordinates:
            Coordinates               Weight
  0.041667  0.041667  0.041667     96.000000
  0.125000  0.041667  0.041667    288.000000
  0.208333  0.041667  0.041667    288.000000
  0.291667  0.041667  0.041667    288.000000
  0.375000  0.041667  0.041667    288.000000
  0.458333  0.041667  0.041667    288.000000
 -0.458333  0.041667  0.041667    288.000000
 -0.375000  0.041667  0.041667    288.000000
 -0.291667  0.041667  0.041667    288.000000
 -0.208333  0.041667  0.041667    288.000000
 -0.125000  0.041667  0.041667    288.000000
 -0.041667  0.041667  0.041667    288.000000
  0.125000  0.125000  0.041667    288.000000
  0.208333  0.125000  0.041667    576.000000
  0.291667  0.125000  0.041667    576.000000
  0.375000  0.125000  0.041667    576.000000
  0.458333  0.125000  0.041667    576.000000
 -0.458333  0.125000  0.041667    576.000000
 -0.375000  0.125000  0.041667    576.000000
 -0.291667  0.125000  0.041667    576.000000
 -0.208333  0.125000  0.041667    576.000000
 -0.125000  0.125000  0.041667    576.000000
 -0.041667  0.125000  0.041667    576.000000
  0.208333  0.208333  0.041667    288.000000
  0.291667  0.208333  0.041667    576.000000
  0.375000  0.208333  0.041667    576.000000
  0.458333  0.208333  0.041667    576.000000
 -0.458333  0.208333  0.041667    576.000000
 -0.375000  0.208333  0.041667    576.000000
 -0.291667  0.208333  0.041667    576.000000
 -0.208333  0.208333  0.041667    576.000000
 -0.125000  0.208333  0.041667    576.000000
 -0.041667  0.208333  0.041667    576.000000
  0.291667  0.291667  0.041667    288.000000
  0.375000  0.291667  0.041667    576.000000
  0.458333  0.291667  0.041667    576.000000
 -0.458333  0.291667  0.041667    576.000000
 -0.375000  0.291667  0.041667    576.000000
 -0.291667  0.291667  0.041667    576.000000
 -0.208333  0.291667  0.041667    576.000000
 -0.125000  0.291667  0.041667    576.000000
 -0.041667  0.291667  0.041667    576.000000
  0.375000  0.375000  0.041667    288.000000
  0.458333  0.375000  0.041667    576.000000
 -0.458333  0.375000  0.041667    576.000000
 -0.375000  0.375000  0.041667    576.000000
 -0.291667  0.375000  0.041667    576.000000
 -0.208333  0.375000  0.041667    576.000000
 -0.125000  0.375000  0.041667    576.000000
 -0.041667  0.375000  0.041667    576.000000
  0.458333  0.458333  0.041667    288.000000
 -0.458333  0.458333  0.041667    576.000000
 -0.375000  0.458333  0.041667    576.000000
 -0.291667  0.458333  0.041667    576.000000
 -0.208333  0.458333  0.041667    576.000000
 -0.125000  0.458333  0.041667    576.000000
 -0.041667  0.458333  0.041667    576.000000
 -0.458333 -0.458333  0.041667    288.000000
 -0.375000 -0.458333  0.041667    576.000000
 -0.291667 -0.458333  0.041667    576.000000
[...]
 -0.375000  0.458333  0.291667    576.000000
 -0.291667  0.458333  0.291667    576.000000
 -0.458333 -0.458333  0.291667    288.000000
 -0.375000 -0.458333  0.291667    576.000000
 -0.375000 -0.375000  0.291667    288.000000
  0.375000  0.375000  0.375000     96.000000
  0.458333  0.375000  0.375000    288.000000
 -0.458333  0.375000  0.375000    288.000000
[...]
  -0.29166667 -0.45833333  0.04166667       0.007
[...]
  -0.37500000  0.45833333  0.29166667       0.007
  -0.29166667  0.45833333  0.29166667       0.007
  -0.45833333 -0.45833333  0.29166667       0.003
  -0.37500000 -0.45833333  0.29166667       0.007
  -0.37500000 -0.37500000  0.29166667       0.003
   0.37500000  0.37500000  0.37500000       0.001
   0.45833333  0.37500000  0.37500000       0.003
  -0.45833333  0.37500000  0.37500000       0.003
  -0.37500000  0.37500000  0.37500000       0.003
   0.45833333  0.45833333  0.37500000       0.003
  -0.45833333  0.45833333  0.37500000       0.007
  -0.37500000  0.45833333  0.37500000       0.007
  -0.45833333 -0.45833333  0.37500000       0.003
   0.45833333  0.45833333  0.45833333       0.001
  -0.45833333  0.45833333  0.45833333       0.003

 position of ions in fractional coordinates (direct lattice)
   0.50000000  0.50000000  0.50000000
   0.75000000  0.75000000  0.75000000

 position of ions in cartesian coordinates  (Angst):
   2.71500000  2.71500000  2.71500000
   4.07250000  4.07250000  4.07250000

 k-point  1 :   0.0417 0.0417 0.0417  plane waves:     259
 k-point  2 :   0.1250 0.0417 0.0417  plane waves:     269
 k-point  3 :   0.2083 0.0417 0.0417  plane waves:     268
 k-point  4 :   0.2917 0.0417 0.0417  plane waves:     262
 k-point  5 :   0.3750 0.0417 0.0417  plane waves:     258
 k-point  6 :   0.4583 0.0417 0.0417  plane waves:     258
 k-point  7 :  -0.4583 0.0417 0.0417  plane waves:     258
 k-point  8 :  -0.3750 0.0417 0.0417  plane waves:     261
 k-point  9 :  -0.2917 0.0417 0.0417  plane waves:     256
 k-point 10 :  -0.2083 0.0417 0.0417  plane waves:     265
 k-point 11 :  -0.1250 0.0417 0.0417  plane waves:     267
 k-point 12 :  -0.0417 0.0417 0.0417  plane waves:     265
 k-point 13 :   0.1250 0.1250 0.0417  plane waves:     265
 k-point 14 :   0.2083 0.1250 0.0417  plane waves:     265
 k-point 15 :   0.2917 0.1250 0.0417  plane waves:     262
 k-point 16 :   0.3750 0.1250 0.0417  plane waves:     261
 k-point 17 :   0.4583 0.1250 0.0417  plane waves:     258
 k-point 18 :  -0.4583 0.1250 0.0417  plane waves:     255
 k-point 19 :  -0.3750 0.1250 0.0417  plane waves:     256
 k-point 20 :  -0.2917 0.1250 0.0417  plane waves:     257
 k-point 21 :  -0.2083 0.1250 0.0417  plane waves:     263
 k-point 22 :  -0.1250 0.1250 0.0417  plane waves:     264
 k-point 23 :  -0.0417 0.1250 0.0417  plane waves:     268
 k-point 24 :   0.2083 0.2083 0.0417  plane waves:     261
 k-point 25 :   0.2917 0.2083 0.0417  plane waves:     261
 k-point 26 :   0.3750 0.2083 0.0417  plane waves:     258
 k-point 27 :   0.4583 0.2083 0.0417  plane waves:     256
 k-point 28 :  -0.4583 0.2083 0.0417  plane waves:     255
 k-point 29 :  -0.3750 0.2083 0.0417  plane waves:     254
 k-point 30 :  -0.2917 0.2083 0.0417  plane waves:     257
 k-point 31 :  -0.2083 0.2083 0.0417  plane waves:     262
 k-point 32 :  -0.1250 0.2083 0.0417  plane waves:     263
 k-point 33 :  -0.0417 0.2083 0.0417  plane waves:     264
 k-point 34 :   0.2917 0.2917 0.0417  plane waves:     258
 k-point 35 :   0.3750 0.2917 0.0417  plane waves:     256
 k-point 36 :   0.4583 0.2917 0.0417  plane waves:     253
 k-point 37 :  -0.4583 0.2917 0.0417  plane waves:     254
 k-point 38 :  -0.3750 0.2917 0.0417  plane waves:     253
 k-point 39 :  -0.2917 0.2917 0.0417  plane waves:     257
 k-point 40 :  -0.2083 0.2917 0.0417  plane waves:     257
 k-point 41 :  -0.1250 0.2917 0.0417  plane waves:     258
 k-point 42 :  -0.0417 0.2917 0.0417  plane waves:     261
 k-point 43 :   0.3750 0.3750 0.0417  plane waves:     251
 k-point 44 :   0.4583 0.3750 0.0417  plane waves:     252
 k-point 45 :  -0.4583 0.3750 0.0417  plane waves:     254
 k-point 46 :  -0.3750 0.3750 0.0417  plane waves:     256
 k-point 47 :  -0.2917 0.3750 0.0417  plane waves:     258
 k-point 48 :  -0.2083 0.3750 0.0417  plane waves:     256
 k-point 49 :  -0.1250 0.3750 0.0417  plane waves:     256
 k-point 50 :  -0.0417 0.3750 0.0417  plane waves:     258
 k-point 51 :   0.4583 0.4583 0.0417  plane waves:     250
 k-point 52 :  -0.4583 0.4583 0.0417  plane waves:     251
 k-point 53 :  -0.3750 0.4583 0.0417  plane waves:     254
 k-point 54 :  -0.2917 0.4583 0.0417  plane waves:     254
 k-point 55 :  -0.2083 0.4583 0.0417  plane waves:     252
 k-point 56 :  -0.1250 0.4583 0.0417  plane waves:     253
 k-point 57 :  -0.0417 0.4583 0.0417  plane waves:     257
 k-point 58 :  -0.4583-0.4583 0.0417  plane waves:     254
 k-point 59 :  -0.3750-0.4583 0.0417  plane waves:     251
 k-point 60 :  -0.2917-0.4583 0.0417  plane waves:     256
[...]
 k-point 85 :   0.3750 0.2083 0.1250  plane waves:     263
 k-point 86 :   0.4583 0.2083 0.1250  plane waves:     258
 k-point 87 :  -0.4583 0.2083 0.1250  plane waves:     254
 k-point 88 :  -0.3750 0.2083 0.1250  plane waves:     252
 k-point 89 :  -0.2917 0.2083 0.1250  plane waves:     255
 k-point 90 :  -0.2083 0.2083 0.1250  plane waves:     257
 k-point 91 :  -0.1250 0.2083 0.1250  plane waves:     261
 k-point 92 :   0.2917 0.2917 0.1250  plane waves:     259
 k-point 93 :   0.3750 0.2917 0.1250  plane waves:     259
 k-point 94 :   0.4583 0.2917 0.1250  plane waves:     256
 k-point 95 :  -0.4583 0.2917 0.1250  plane waves:     255
 k-point 96 :  -0.3750 0.2917 0.1250  plane waves:     254
 k-point 97 :  -0.2917 0.2917 0.1250  plane waves:     254
 k-point 98 :  -0.2083 0.2917 0.1250  plane waves:     256
 k-point 99 :  -0.1250 0.2917 0.1250  plane waves:     261
 k-point ** :   0.3750 0.3750 0.1250  plane waves:     257
 k-point ** :   0.4583 0.3750 0.1250  plane waves:     255
 k-point ** :  -0.4583 0.3750 0.1250  plane waves:     252
 k-point ** :  -0.3750 0.3750 0.1250  plane waves:     258
 k-point ** :  -0.2917 0.3750 0.1250  plane waves:     258
 k-point ** :  -0.2083 0.3750 0.1250  plane waves:     256
 k-point ** :  -0.1250 0.3750 0.1250  plane waves:     258
 k-point ** :   0.4583 0.4583 0.1250  plane waves:     251
 k-point ** :  -0.4583 0.4583 0.1250  plane waves:     251
 k-point ** :  -0.3750 0.4583 0.1250  plane waves:     254
 k-point ** :  -0.2917 0.4583 0.1250  plane waves:     259
 k-point ** :  -0.2083 0.4583 0.1250  plane waves:     256
 k-point ** :  -0.1250 0.4583 0.1250  plane waves:     254
 k-point ** :  -0.4583-0.4583 0.1250  plane waves:     255
 k-point ** :  -0.3750-0.4583 0.1250  plane waves:     252
 k-point ** :  -0.2917-0.4583 0.1250  plane waves:     254
 k-point ** :  -0.2083-0.4583 0.1250  plane waves:     255
 k-point ** :  -0.3750-0.3750 0.1250  plane waves:     252
 k-point ** :  -0.2917-0.3750 0.1250  plane waves:     254
 k-point ** :  -0.2083-0.3750 0.1250  plane waves:     255
 k-point ** :  -0.2917-0.2917 0.1250  plane waves:     257
 k-point ** :  -0.2083-0.2917 0.1250  plane waves:     259
 k-point ** :  -0.2083-0.2083 0.1250  plane waves:     256
 k-point ** :   0.2083 0.2083 0.2083  plane waves:     271
 k-point ** :   0.2917 0.2083 0.2083  plane waves:     262
 k-point ** :   0.3750 0.2083 0.2083  plane waves:     263
 k-point ** :   0.4583 0.2083 0.2083  plane waves:     260
 k-point ** :  -0.4583 0.2083 0.2083  plane waves:     258
 k-point ** :  -0.3750 0.2083 0.2083  plane waves:     254
 k-point ** :  -0.2917 0.2083 0.2083  plane waves:     255
 k-point ** :  -0.2083 0.2083 0.2083  plane waves:     260
 k-point ** :   0.2917 0.2917 0.2083  plane waves:     259
 k-point ** :   0.3750 0.2917 0.2083  plane waves:     258
 k-point ** :   0.4583 0.2917 0.2083  plane waves:     259
 k-point ** :  -0.4583 0.2917 0.2083  plane waves:     258
 k-point ** :  -0.3750 0.2917 0.2083  plane waves:     253
 k-point ** :  -0.2917 0.2917 0.2083  plane waves:     251
 k-point ** :  -0.2083 0.2917 0.2083  plane waves:     255
 k-point ** :   0.3750 0.3750 0.2083  plane waves:     259
 k-point ** :   0.4583 0.3750 0.2083  plane waves:     254
 k-point ** :  -0.4583 0.3750 0.2083  plane waves:     256
 k-point ** :  -0.3750 0.3750 0.2083  plane waves:     254
 k-point ** :  -0.2917 0.3750 0.2083  plane waves:     259
 k-point ** :  -0.2083 0.3750 0.2083  plane waves:     253
 k-point ** :   0.4583 0.4583 0.2083  plane waves:     255
 k-point ** :  -0.4583 0.4583 0.2083  plane waves:     255
 k-point ** :  -0.3750 0.4583 0.2083  plane waves:     253
 k-point ** :  -0.2917 0.4583 0.2083  plane waves:     258
 k-point ** :  -0.2083 0.4583 0.2083  plane waves:     259
 k-point ** :  -0.4583-0.4583 0.2083  plane waves:     253
 k-point ** :  -0.3750-0.4583 0.2083  plane waves:     257
 k-point ** :  -0.2917-0.4583 0.2083  plane waves:     257
 k-point ** :  -0.3750-0.3750 0.2083  plane waves:     253
 k-point ** :  -0.2917-0.3750 0.2083  plane waves:     256
 k-point ** :  -0.2917-0.2917 0.2083  plane waves:     254
 k-point ** :   0.2917 0.2917 0.2917  plane waves:     256
 k-point ** :   0.3750 0.2917 0.2917  plane waves:     261
 k-point ** :   0.4583 0.2917 0.2917  plane waves:     256
 k-point ** :  -0.4583 0.2917 0.2917  plane waves:     256
 k-point ** :  -0.3750 0.2917 0.2917  plane waves:     257
[...]
 k-point ** :  -0.3750 0.4583 0.2917  plane waves:     256
 k-point ** :  -0.2917 0.4583 0.2917  plane waves:     257
 k-point ** :  -0.4583-0.4583 0.2917  plane waves:     253
 k-point ** :  -0.3750-0.4583 0.2917  plane waves:     256
 k-point ** :  -0.3750-0.3750 0.2917  plane waves:     259
 k-point ** :   0.3750 0.3750 0.3750  plane waves:     256
 k-point ** :   0.4583 0.3750 0.3750  plane waves:     256
 k-point ** :  -0.4583 0.3750 0.3750  plane waves:     255
 k-point ** :  -0.3750 0.3750 0.3750  plane waves:     253
 k-point ** :   0.4583 0.4583 0.3750  plane waves:     257
 k-point ** :  -0.4583 0.4583 0.3750  plane waves:     254
 k-point ** :  -0.3750 0.4583 0.3750  plane waves:     254
 k-point ** :  -0.4583-0.4583 0.3750  plane waves:     255
 k-point ** :   0.4583 0.4583 0.4583  plane waves:     266
 k-point ** :  -0.4583 0.4583 0.4583  plane waves:     256

 maximum and minimum number of plane-waves per node :       271      250

 maximum number of plane-waves:       271
 maximum index in each direction:
   IXMAX=    4   IYMAX=    4   IZMAX=    4
   IXMIN=   -4   IYMIN=   -4   IZMIN=   -4

 serial   3D FFT for wavefunctions
 parallel 3D FFT for charge:
    minimum data exchange during FFTs selected (reduces bandwidth)

 Broyden mixing: mesh for mixing (old mesh)
   NGX =  9   NGY =  9   NGZ =  9
  (NGX  = 28   NGY  = 28   NGZ  = 28)
  gives a total of    729 points

 charge density for first step will be calculated from the start-wavefunctions

 Maximum index for augmentation-charges          361 (set IRDMAX)

 initial charge from wavefunction
 First call to EWALD:  gamma=   0.518
 Maximum number of real-space cells 3x 3x 3
 Maximum number of reciprocal cells 3x 3x 3

--------------------------------------- Iteration      1(   1)  ---------------------------------------

 eigenvalue-minimisations  :  1520
 total energy-change (2. order) :-0.1079769E+02  (-0.2524030E-05)
 number of electron       8.0000014 magnetization
 augmentation part       -0.4553795 magnetization

 Broyden mixing:
  rms(total) = 0.14424E-03    rms(broyden)= 0.14423E-03
  rms(prec ) = 0.38221E-03
  weight for this iteration     100.00

 Free energy of the ion-electron system (eV)
  alpha Z        PSCENC =         3.36414203
  Ewald energy   TEWEN  =      -228.56352493
  -Hartree energ DENC   =       -14.90167303
  -exchange      EXHF   =         0.00000000
  -V(xc)+E(xc)   XCENC  =       -17.94095526
  PAW double counting   =        75.89858144      -40.94929425
  entropy T*S    EENTRO =        -0.00005912
  eigenvalues    EBANDS =         6.18261684
  atomic energy  EATOM  =       206.11247263
  Solvation  Ediel_sol  =         0.00000000
  free energy    TOTEN  =       -10.79769366 eV

  energy without entropy =      -10.79763454  energy(sigma->0) =      -10.79766410

--------------------------------------- Iteration      1(   2)  ---------------------------------------

 eigenvalue-minimisations  :  1488
 total energy-change (2. order) :-0.1737895E-06  (-0.1047344E-06)
 number of electron       8.0000014 magnetization
 augmentation part       -0.4553795 magnetization

 Free energy of the ion-electron system (eV)
  alpha Z        PSCENC =         3.36414203
  Ewald energy   TEWEN  =      -228.56352493
  -Hartree energ DENC   =       -14.90141180
  -exchange      EXHF   =         0.00000000
  -V(xc)+E(xc)   XCENC  =       -17.94095380
  PAW double counting   =        75.89688612      -40.94753927
  entropy T*S    EENTRO =        -0.00005905
  eigenvalues    EBANDS =         6.18229425
  atomic energy  EATOM  =       206.11247263
  Solvation  Ediel_sol  =         0.00000000
  free energy    TOTEN  =       -10.79769383 eV

  energy without entropy =      -10.79763478  energy(sigma->0) =      -10.79766430

 average (electrostatic) potential at core
  the test charge radii are     0.9892
  (the norm of the test charge is              1.0000)
       1 -83.2500       2 -83.2500

 E-fermi :   6.1481     XC(G=0):  -9.4123     alpha+bet :-11.9845

 k-point     1 :       0.0417    0.0417    0.0417
  band No.  band energies     occupation
      1      -6.1081      2.00000
      2       5.5965      1.99990
      3       5.8152      1.98143
      4       5.8152      1.98143
      5       8.4764      0.00000
      6       8.4826      0.00000
      7       8.4826      0.00000
      8       9.3728      0.00000

[...]

 k-point   182 :      -0.4583    0.4583    0.4583
  band No.  band energies     occupation
      1      -3.7275      2.00000
      2      -1.0792      2.00000
      3       3.9974      2.00000
      4       4.5240      2.00000
      5       7.9108      0.00000
      6       9.1900      0.00000
      7       9.5135      0.00000
      8      13.8993      0.00000

 soft charge-density along one line, spin component           1
         0         1         2         3         4         5         6         7         8         9
 total charge-density along one line

------------------------ aborting loop because EDIFF is reached ----------------------------------------

  FORCE on cell =-STRESS in cart. coord.  units (eV):
  Direction    XX          YY          ZZ          XY          YZ          ZX
  Alpha Z     3.36414     3.36414     3.36414
  Ewald     -76.18788   -76.18788   -76.18788    -0.00000    -0.00000     0.00000
  Hartree     4.96709     4.96709     4.96709    -0.00000    -0.00000    -0.00000
  E(xc)     -25.40226   -25.40226   -25.40226     0.00000     0.00000     0.00000
  Local     -29.44684   -29.44684   -29.44684     0.00008     0.00008     0.00008
  n-local    78.19879    80.61846    75.65984     1.07735    -1.09701     0.01715
  augment   -11.56324   -11.56324   -11.56324    -0.00008    -0.00008    -0.00008
  Kinetic    58.21226    55.88371    55.61619     0.86573    -0.88544     0.01736
  Fock        0.00000     0.00000     0.00000     0.00000     0.00000     0.00000
  Total       0.46076     0.46076     0.46076     0.00000    -0.00000    -0.00000
  in kB      18.44348    18.44348    18.44348     0.00000    -0.00000    -0.00000

 VOLUME and BASIS-vectors are now :
  energy-cutoff  :      200.00
  volume of cell :       40.03
      direct lattice vectors                 reciprocal lattice vectors
     0.000000000  2.715000000  2.715000000    -0.184162063  0.184162063  0.184162063
     2.715000000  0.000000000  2.715000000     0.184162063 -0.184162063  0.184162063
     2.715000000  2.715000000  0.000000000     0.184162063  0.184162063 -0.184162063

  length of vectors
     3.839589822  3.839589822  3.839589822     0.318978049  0.318978049  0.318978049

 FORCES acting on ions
    electron-ion (+dipol)            ewald-force                    non-local-force                 convergence-correction
   0.782E-05 0.782E-05 0.832E-05   -.476E-15 -.149E-14 0.391E-14   -.306E-18 -.306E-18 -.131E-17   -.110E-07 -.110E-07 -.110E-07
   -.782E-05 -.782E-05 -.832E-05   0.623E-15 0.106E-14 -.375E-14   -.620E-17 0.735E-18 0.308E-17   0.110E-07 0.110E-07 0.110E-07
   -.462E-13 -.175E-13 -.617E-13   0.147E-15 -.426E-15 0.164E-15   -.651E-17 0.429E-18 0.177E-17   0.214E-14 0.141E-14 -.107E-14

 POSITION                                       TOTAL-FORCE (eV/Angst)
      2.71500      2.71500      2.71500         0.000000      0.000000      0.000000
      4.07250      4.07250      4.07250        -0.000000     -0.000000     -0.000000
    total drift:                               -0.000000     -0.000000     -0.000000

  FREE ENERGIE OF THE ION-ELECTRON SYSTEM (eV)
  free  energy   TOTEN  =       -10.79769383 eV

  energy  without entropy=      -10.79763478  energy(sigma->0) =      -10.79766430

 reached required accuracy - stopping structural energy minimisation
 writing wavefunctions