 vasp.5.4.4.18Apr17-6-g9f103f2a35 (build Dec 09 2018 21:25:21) complex

 executed on IFC18.0.1.163_CrayMP date 2019.03.20  09:49:04

 INCAR:
 POTCAR:   PAW_PBE Si 05Jan2001

 POTCAR:   PAW_PBE Si 05Jan2001
   VRHFIN =Si: s2p2

   TITEL  = PAW_PBE Si 05Jan2001
   POMASS =   28.085; ZVAL   =    4.000    mass and valenz
   ENMAX  =  245.345; ENMIN  =  184.009 eV
   QCUT   =   -4.246; QGAM   =    8.493    optimization parameters

   Description
     l     E      TYP  RCUT    TYP  RCUT
     0   .000     23  1.900
     0   .000     23  1.900
     1   .000     23  1.900
     1   .000     23  1.900
     2   .000      7  1.900

 PAW_PBE Si 05Jan2001                   :

 POSCAR: Si2
  positions in direct lattice
 exchange correlation table for  LEXCH =        8
   RHO(1)=    0.500       N(1)  =     2000
   RHO(2)=  100.500       N(2)  =     4000

 ion  position               nearest neighbor table
   1  0.500  0.500  0.500-   2 2.35   2 2.35   2 2.35   2 2.35
   2  0.750  0.750  0.750-   1 2.35   1 2.35   1 2.35   1 2.35

  LATTYP: Found a face centered cubic cell.
 ALAT       =     5.4300000000

  Lattice vectors:

 A1 = (   0.0000000000,   2.7150000000,   2.7150000000)
 A2 = (   2.7150000000,   0.0000000000,   2.7150000000)
 A3 = (   2.7150000000,   2.7150000000,   0.0000000000)

Analysis of symmetry for initial positions (statically):
 Subroutine PRICEL returns:
 Original cell was already a primitive cell.

 Routine SETGRP: Setting up the symmetry group for a
 face centered cubic supercell.

 Subroutine GETGRP returns: Found 48 space group operations
 (whereof 24 operations were pure point group operations)
 out of a pool of 48 trial point group operations.

The static configuration has the point symmetry T_d .
 The point group associated with its full space group is O_h .

Analysis of symmetry for dynamics (positions and initial velocities):
 Subroutine PRICEL returns:
 Original cell was already a primitive cell.

 Routine SETGRP: Setting up the symmetry group for a
 face centered cubic supercell.

 Subroutine GETGRP returns: Found 48 space group operations
 (whereof 24 operations were pure point group operations)
 out of a pool of 48 trial point group operations.

The dynamic configuration has the point symmetry T_d .
 The point group associated with its full space group is O_h .

 Subroutine INISYM returns: Found 48 space group operations
 (whereof 24 operations are pure point group operations),
 and found     1 'primitive' translations

 KPOINTS: Automatic kpoint scheme

Automatic generation of k-mesh.
Space group operators:
 irot       det(A)        alpha          n_x          n_y          n_z        tau_x        tau_y        tau_z
    1     1.000000     0.000001     1.000000     0.000000     0.000000     0.000000     0.000000     0.000000
    2     1.000000   120.000000    -0.577350    -0.577350    -0.577350     0.000000     0.000000     0.000000
    3     1.000000   120.000000     0.577350     0.577350     0.577350     0.000000     0.000000     0.000000
    4    -1.000000    90.000000    -0.000000    -0.000000    -1.000000     0.000000     0.000000     0.000000
    5    -1.000000   180.000000    -0.000000     0.707107     0.707107     0.000000     0.000000     0.000000
    6    -1.000000    90.000000    -0.000000     1.000000    -0.000000     0.000000     0.000000     0.000000
    7     1.000000   180.000000     0.000000     0.000000    -1.000000     0.000000     0.000000     0.000000
    8     1.000000   120.000000    -0.577350     0.577350     0.577350     0.000000     0.000000     0.000000
    9     1.000000   120.000000    -0.577350     0.577350    -0.577350     0.000000     0.000000     0.000000
   10    -1.000000    90.000000     0.000000     0.000000     1.000000     0.000000     0.000000     0.000000
   11    -1.000000    90.000000    -1.000000     0.000000    -0.000000     0.000000     0.000000     0.000000
   12    -1.000000   180.000000     0.707107     0.000000     0.707107     0.000000     0.000000     0.000000
   13     1.000000   120.000000     0.577350    -0.577350     0.577350     0.000000     0.000000     0.000000
   14     1.000000   120.000000    -0.577350    -0.577350     0.577350     0.000000     0.000000     0.000000
   15     1.000000   180.000000     1.000000     0.000000     0.000000     0.000000     0.000000     0.000000
   16    -1.000000    90.000000     0.000000    -1.000000     0.000000     0.000000     0.000000     0.000000
   17    -1.000000   180.000000     0.707107     0.707107    -0.000000     0.000000     0.000000     0.000000
   18    -1.000000    90.000000     1.000000     0.000000     0.000000     0.000000     0.000000     0.000000
   19     1.000000   120.000000     0.577350    -0.577350    -0.577350     0.000000     0.000000     0.000000
   20     1.000000   180.000000     0.000000    -1.000000     0.000000     0.000000     0.000000     0.000000
   21     1.000000   120.000000     0.577350     0.577350    -0.577350     0.000000     0.000000     0.000000
   22    -1.000000   180.000000    -0.000000    -0.707107     0.707107     0.000000     0.000000     0.000000
   23    -1.000000   180.000000     0.707107    -0.707107    -0.000000     0.000000     0.000000     0.000000
   24    -1.000000   180.000000    -0.707107     0.000000     0.707107     0.000000     0.000000     0.000000
   25    -1.000000     0.000001     1.000000     0.000000     0.000000     0.250000     0.250000     0.250000
   26    -1.000000   120.000000    -0.577350    -0.577350    -0.577350     0.250000     0.250000     0.250000
   27    -1.000000   120.000000     0.577350     0.577350     0.577350     0.250000     0.250000     0.250000
   28     1.000000    90.000000    -0.000000    -0.000000    -1.000000     0.250000     0.250000     0.250000
   29     1.000000   180.000000    -0.000000     0.707107     0.707107     0.250000     0.250000     0.250000
   30     1.000000    90.000000    -0.000000     1.000000    -0.000000     0.250000     0.250000     0.250000
   31    -1.000000   180.000000     0.000000     0.000000    -1.000000     0.250000     0.250000     0.250000
   32    -1.000000   120.000000    -0.577350     0.577350     0.577350     0.250000     0.250000     0.250000
   33    -1.000000   120.000000    -0.577350     0.577350    -0.577350     0.250000     0.250000     0.250000
   34     1.000000    90.000000     0.000000     0.000000     1.000000     0.250000     0.250000     0.250000
   35     1.000000    90.000000    -1.000000     0.000000    -0.000000     0.250000     0.250000     0.250000
   36     1.000000   180.000000     0.707107     0.000000     0.707107     0.250000     0.250000     0.250000
   37    -1.000000   120.000000     0.577350    -0.577350     0.577350     0.250000     0.250000     0.250000
   38    -1.000000   120.000000    -0.577350    -0.577350     0.577350     0.250000     0.250000     0.250000
   39    -1.000000   180.000000     1.000000     0.000000     0.000000     0.250000     0.250000     0.250000
   40     1.000000    90.000000     0.000000    -1.000000     0.000000     0.250000     0.250000     0.250000
   41     1.000000   180.000000     0.707107     0.707107    -0.000000     0.250000     0.250000     0.250000
   42     1.000000    90.000000     1.000000     0.000000     0.000000     0.250000     0.250000     0.250000
   43    -1.000000   120.000000     0.577350    -0.577350    -0.577350     0.250000     0.250000     0.250000
   44    -1.000000   180.000000     0.000000    -1.000000     0.000000     0.250000     0.250000     0.250000
   45    -1.000000   120.000000     0.577350     0.577350    -0.577350     0.250000     0.250000     0.250000
   46     1.000000   180.000000    -0.000000    -0.707107     0.707107     0.250000     0.250000     0.250000
   47     1.000000   180.000000     0.707107    -0.707107    -0.000000     0.250000     0.250000     0.250000
   48     1.000000   180.000000    -0.707107     0.000000     0.707107     0.250000     0.250000     0.250000

 Subroutine IBZKPT returns following result:

 Found     60 irreducible k-points:

 Following reciprocal coordinates:
            Coordinates               Weight
  0.062500  0.062500  0.062500     96.000000
  0.187500  0.062500  0.062500    288.000000
  0.312500  0.062500  0.062500    288.000000
  0.437500  0.062500  0.062500    288.000000
 -0.437500  0.062500  0.062500    288.000000
 -0.312500  0.062500  0.062500    288.000000
 -0.187500  0.062500  0.062500    288.000000
 -0.062500  0.062500  0.062500    288.000000
  0.187500  0.187500  0.062500    288.000000
  0.312500  0.187500  0.062500    576.000000
  0.437500  0.187500  0.062500    576.000000
 -0.437500  0.187500  0.062500    576.000000
 -0.312500  0.187500  0.062500    576.000000
 -0.187500  0.187500  0.062500    576.000000
 -0.062500  0.187500  0.062500    576.000000
  0.312500  0.312500  0.062500    288.000000
  0.437500  0.312500  0.062500    576.000000
 -0.437500  0.312500  0.062500    576.000000
 -0.312500  0.312500  0.062500    576.000000
 -0.187500  0.312500  0.062500    576.000000
 -0.062500  0.312500  0.062500    576.000000
  0.437500  0.437500  0.062500    288.000000
 -0.437500  0.437500  0.062500    576.000000
 -0.312500  0.437500  0.062500    576.000000
 -0.187500  0.437500  0.062500    576.000000
 -0.062500  0.437500  0.062500    576.000000
 -0.437500 -0.437500  0.062500    288.000000
 -0.312500 -0.437500  0.062500    576.000000
 -0.187500 -0.437500  0.062500    576.000000
 -0.312500 -0.312500  0.062500    288.000000
 -0.187500 -0.312500  0.062500    576.000000
 -0.187500 -0.187500  0.062500    288.000000
  0.187500  0.187500  0.187500     96.000000
  0.312500  0.187500  0.187500    288.000000
  0.437500  0.187500  0.187500    288.000000
 -0.437500  0.187500  0.187500    288.000000
 -0.312500  0.187500  0.187500    288.000000
 -0.187500  0.187500  0.187500    288.000000
  0.312500  0.312500  0.187500    288.000000
  0.437500  0.312500  0.187500    576.000000
 -0.437500  0.312500  0.187500    576.000000
 -0.312500  0.312500  0.187500    576.000000
 -0.187500  0.312500  0.187500    576.000000
  0.437500  0.437500  0.187500    288.000000
 -0.437500  0.437500  0.187500    576.000000
 -0.312500  0.437500  0.187500    576.000000
 -0.187500  0.437500  0.187500    576.000000
 -0.437500 -0.437500  0.187500    288.000000
 -0.312500 -0.437500  0.187500    576.000000
 -0.312500 -0.312500  0.187500    288.000000
  0.312500  0.312500  0.312500     96.000000
  0.437500  0.312500  0.312500    288.000000
 -0.437500  0.312500  0.312500    288.000000
 -0.312500  0.312500  0.312500    288.000000
  0.437500  0.437500  0.312500    288.000000
 -0.437500  0.437500  0.312500    576.000000
 -0.312500  0.437500  0.312500    576.000000
 -0.437500 -0.437500  0.312500    288.000000
  0.437500  0.437500  0.437500     96.000000
 -0.437500  0.437500  0.437500    288.000000

 Following cartesian coordinates:
            Coordinates               Weight
  0.011510  0.011510  0.011510     96.000000
 -0.011510  0.034530  0.034530    288.000000
 -0.034530  0.057551  0.057551    288.000000
 -0.057551  0.080571  0.080571    288.000000
  0.103591 -0.080571 -0.080571    288.000000
  0.080571 -0.057551 -0.057551    288.000000
[...]
  -0.18750000 -0.31250000  0.06250000       0.023
  -0.18750000 -0.18750000  0.06250000       0.012
   0.18750000  0.18750000  0.18750000       0.004
   0.31250000  0.18750000  0.18750000       0.012
   0.43750000  0.18750000  0.18750000       0.012
  -0.43750000  0.18750000  0.18750000       0.012
  -0.31250000  0.18750000  0.18750000       0.012
  -0.18750000  0.18750000  0.18750000       0.012
   0.31250000  0.31250000  0.18750000       0.012
   0.43750000  0.31250000  0.18750000       0.023
  -0.43750000  0.31250000  0.18750000       0.023
  -0.31250000  0.31250000  0.18750000       0.023
  -0.18750000  0.31250000  0.18750000       0.023
   0.43750000  0.43750000  0.18750000       0.012
  -0.43750000  0.43750000  0.18750000       0.023
  -0.31250000  0.43750000  0.18750000       0.023
  -0.18750000  0.43750000  0.18750000       0.023
  -0.43750000 -0.43750000  0.18750000       0.012
  -0.31250000 -0.43750000  0.18750000       0.023
  -0.31250000 -0.31250000  0.18750000       0.012
   0.31250000  0.31250000  0.31250000       0.004
   0.43750000  0.31250000  0.31250000       0.012
  -0.43750000  0.31250000  0.31250000       0.012
  -0.31250000  0.31250000  0.31250000       0.012
   0.43750000  0.43750000  0.31250000       0.012
  -0.43750000  0.43750000  0.31250000       0.023
  -0.31250000  0.43750000  0.31250000       0.023
  -0.43750000 -0.43750000  0.31250000       0.012
   0.43750000  0.43750000  0.43750000       0.004
  -0.43750000  0.43750000  0.43750000       0.012

 position of ions in fractional coordinates (direct lattice)
   0.50000000  0.50000000  0.50000000
   0.75000000  0.75000000  0.75000000

 position of ions in cartesian coordinates  (Angst):
   2.71500000  2.71500000  2.71500000
   4.07250000  4.07250000  4.07250000

 k-point  1 :   0.0625 0.0625 0.0625  plane waves:     265
 k-point  2 :   0.1875 0.0625 0.0625  plane waves:     268
 k-point  3 :   0.3125 0.0625 0.0625  plane waves:     260
 k-point  4 :   0.4375 0.0625 0.0625  plane waves:     258
 k-point  5 :  -0.4375 0.0625 0.0625  plane waves:     258
 k-point  6 :  -0.3125 0.0625 0.0625  plane waves:     260
 k-point  7 :  -0.1875 0.0625 0.0625  plane waves:     265
 k-point  8 :  -0.0625 0.0625 0.0625  plane waves:     267
 k-point  9 :   0.1875 0.1875 0.0625  plane waves:     264
 k-point 10 :   0.3125 0.1875 0.0625  plane waves:     261
 k-point 11 :   0.4375 0.1875 0.0625  plane waves:     258
 k-point 12 :  -0.4375 0.1875 0.0625  plane waves:     253
 k-point 13 :  -0.3125 0.1875 0.0625  plane waves:     257
 k-point 14 :  -0.1875 0.1875 0.0625  plane waves:     262
 k-point 15 :  -0.0625 0.1875 0.0625  plane waves:     264
 k-point 16 :   0.3125 0.3125 0.0625  plane waves:     257
 k-point 17 :   0.4375 0.3125 0.0625  plane waves:     256
 k-point 18 :  -0.4375 0.3125 0.0625  plane waves:     255
 k-point 19 :  -0.3125 0.3125 0.0625  plane waves:     256
 k-point 20 :  -0.1875 0.3125 0.0625  plane waves:     258
 k-point 21 :  -0.0625 0.3125 0.0625  plane waves:     261
 k-point 22 :   0.4375 0.4375 0.0625  plane waves:     251
 k-point 23 :  -0.4375 0.4375 0.0625  plane waves:     252
 k-point 24 :  -0.3125 0.4375 0.0625  plane waves:     257
 k-point 25 :  -0.1875 0.4375 0.0625  plane waves:     256
 k-point 26 :  -0.0625 0.4375 0.0625  plane waves:     256
 k-point 27 :  -0.4375-0.4375 0.0625  plane waves:     252
 k-point 28 :  -0.3125-0.4375 0.0625  plane waves:     254
 k-point 29 :  -0.1875-0.4375 0.0625  plane waves:     255
 k-point 30 :  -0.3125-0.3125 0.0625  plane waves:     255
 k-point 31 :  -0.1875-0.3125 0.0625  plane waves:     258
 k-point 32 :  -0.1875-0.1875 0.0625  plane waves:     262
 k-point 33 :   0.1875 0.1875 0.1875  plane waves:     271
 k-point 34 :   0.3125 0.1875 0.1875  plane waves:     262
 k-point 35 :   0.4375 0.1875 0.1875  plane waves:     258
 k-point 36 :  -0.4375 0.1875 0.1875  plane waves:     256
 k-point 37 :  -0.3125 0.1875 0.1875  plane waves:     253
 k-point 38 :  -0.1875 0.1875 0.1875  plane waves:     258
 k-point 39 :   0.3125 0.3125 0.1875  plane waves:     263
 k-point 40 :   0.4375 0.3125 0.1875  plane waves:     260
 k-point 41 :  -0.4375 0.3125 0.1875  plane waves:     257
 k-point 42 :  -0.3125 0.3125 0.1875  plane waves:     255
 k-point 43 :  -0.1875 0.3125 0.1875  plane waves:     254
 k-point 44 :   0.4375 0.4375 0.1875  plane waves:     255
 k-point 45 :  -0.4375 0.4375 0.1875  plane waves:     252
 k-point 46 :  -0.3125 0.4375 0.1875  plane waves:     258
 k-point 47 :  -0.1875 0.4375 0.1875  plane waves:     254
 k-point 48 :  -0.4375-0.4375 0.1875  plane waves:     255
 k-point 49 :  -0.3125-0.4375 0.1875  plane waves:     254
 k-point 50 :  -0.3125-0.3125 0.1875  plane waves:     253
 k-point 51 :   0.3125 0.3125 0.3125  plane waves:     256
 k-point 52 :   0.4375 0.3125 0.3125  plane waves:     256
 k-point 53 :  -0.4375 0.3125 0.3125  plane waves:     255
 k-point 54 :  -0.3125 0.3125 0.3125  plane waves:     261
 k-point 55 :   0.4375 0.4375 0.3125  plane waves:     257
 k-point 56 :  -0.4375 0.4375 0.3125  plane waves:     256
 k-point 57 :  -0.3125 0.4375 0.3125  plane waves:     257
 k-point 58 :  -0.4375-0.4375 0.3125  plane waves:     253
 k-point 59 :   0.4375 0.4375 0.4375  plane waves:     260
 k-point 60 :  -0.4375 0.4375 0.4375  plane waves:     254

 maximum and minimum number of plane-waves per node :       271      251

 maximum number of plane-waves:       271
 maximum index in each direction:
   IXMAX=    4   IYMAX=    4   IZMAX=    4
   IXMIN=   -4   IYMIN=   -4   IZMIN=   -4

 serial   3D FFT for wavefunctions
 parallel 3D FFT for charge:
    minimum data exchange during FFTs selected (reduces bandwidth)

 Broyden mixing: mesh for mixing (old mesh)
   NGX =  9   NGY =  9   NGZ =  9
  (NGX  = 28   NGY  = 28   NGZ  = 28)
  gives a total of    729 points

 initial charge density was supplied:
 charge density of overlapping atoms calculated
 number of electron       8.0000000 magnetization
 keeping initial charge density in first step

 Maximum index for augmentation-charges          361 (set IRDMAX)

 First call to EWALD:  gamma=   0.518
 Maximum number of real-space cells 3x 3x 3
 Maximum number of reciprocal cells 3x 3x 3

--------------------------------------- Iteration      1(   1)  ---------------------------------------

 eigenvalue-minimisations  :   992
 total energy-change (2. order) :-0.1263499E+01  (-0.2067581E+03)
 number of electron       8.0000000 magnetization
 augmentation part        8.0000000 magnetization

 Free energy of the ion-electron system (eV)
  alpha Z        PSCENC =         3.36414203
  Ewald energy   TEWEN  =      -228.56352493
  -Hartree energ DENC   =       -11.00108243
  -exchange      EXHF   =         0.00000000
  -V(xc)+E(xc)   XCENC  =       -18.60172597
  PAW double counting   =        65.95520812      -30.76852678
  entropy T*S    EENTRO =        -0.01086254
  eigenvalues    EBANDS =        12.25040118
  atomic energy  EATOM  =       206.11247263
  Solvation  Ediel_sol  =         0.00000000
  free energy    TOTEN  =        -1.26349870 eV

  energy without entropy =       -1.25263616  energy(sigma->0) =       -1.25806743

[...]

 Broyden mixing:
  rms(total) = 0.29906E+00    rms(broyden)= 0.29904E+00
  rms(prec ) = 0.86764E+00
  weight for this iteration     100.00

[...]

 eigenvalue-minimisations  :  1128
 total energy-change (2. order) : 0.1239545E+00  (-0.8048745E-02)
 number of electron       8.0000014 magnetization
 augmentation part       -0.4612929 magnetization

[...]

 eigenvalues of (default mixing * dielectric matrix)
  average eigenvalue GAMMA=   2.4325
  2.4325

[...]

 average (electrostatic) potential at core
  the test charge radii are     0.9892
  (the norm of the test charge is              1.0000)
       1 -83.2547       2 -83.2547

 E-fermi :   6.1582     XC(G=0):  -9.4148     alpha+bet :-11.9845

 k-point     1 :       0.0625    0.0625    0.0625
  band No.  band energies     occupation
      1      -6.0810      2.00000
      2       5.3188      2.00000
      3       5.7667      1.99436
      4       5.7667      1.99436
      5       8.4872      0.00000
      6       8.5498      0.00000
      7       8.5498      0.00000
      8       9.5865      0.00000

[...]

 soft charge-density along one line, spin component           1
         0         1         2         3         4         5         6         7         8         9
 total charge-density along one line

------------------------ aborting loop because EDIFF is reached ----------------------------------------

  FORCE on cell =-STRESS in cart. coord.  units (eV):
  Direction    XX          YY          ZZ          XY          YZ          ZX
  Alpha Z     3.36414     3.36414     3.36414
  Ewald     -76.18788   -76.18788   -76.18788    -0.00000    -0.00000     0.00000
  Hartree     4.96728     4.96728     4.96728    -0.00000    -0.00000    -0.00000
  E(xc)     -25.40010   -25.40010   -25.40010    -0.00000    -0.00000    -0.00000
  Local     -29.44905   -29.44905   -29.44905     0.00008     0.00008     0.00008
  n-local    78.06501    80.58700    75.84428     1.06825    -1.16033     0.04946
  augment   -11.56486   -11.56486   -11.56486    -0.00008    -0.00008    -0.00008
  Kinetic    58.11457    55.91757    55.68435     0.79102    -0.88526     0.04581
  Fock        0.00000     0.00000     0.00000     0.00000     0.00000     0.00000
  Total       0.46713     0.46713     0.46713     0.00000     0.00000    -0.00000
  in kB      18.69853    18.69853    18.69853     0.00000     0.00000    -0.00000

 VOLUME and BASIS-vectors are now :
  energy-cutoff  :      200.00
  volume of cell :       40.03
      direct lattice vectors                 reciprocal lattice vectors
     0.000000000  2.715000000  2.715000000    -0.184162063  0.184162063  0.184162063
     2.715000000  0.000000000  2.715000000     0.184162063 -0.184162063  0.184162063
     2.715000000  2.715000000  0.000000000     0.184162063  0.184162063 -0.184162063

[...]

 FORCES acting on ions
    electron-ion (+dipol)            ewald-force                    non-local-force                 convergence-correction
   0.782E-05 0.782E-05 0.830E-05   -.476E-15 -.149E-14 0.391E-14   0.207E-16 0.172E-16 0.287E-16   -.978E-06 -.978E-06 -.978E-06
   -.782E-05 -.782E-05 -.830E-05   0.623E-15 0.106E-14 -.375E-14   -.210E-16 -.176E-16 -.262E-16   0.978E-06 0.978E-06 0.978E-06
   -.315E-13 0.252E-14 -.549E-13   0.147E-15 -.426E-15 0.164E-15   -.347E-18 -.347E-18 0.255E-17   -.189E-14 -.416E-14 0.154E-14

 POSITION                                       TOTAL-FORCE (eV/Angst)
      2.71500      2.71500      2.71500         0.000000      0.000000      0.000000
      4.07250      4.07250      4.07250        -0.000000     -0.000000     -0.000000
    total drift:                               -0.000000     -0.000000     -0.000000

  FREE ENERGIE OF THE ION-ELECTRON SYSTEM (eV)
  free  energy   TOTEN  =       -10.79771126 eV

  energy  without entropy=      -10.79766745  energy(sigma->0) =      -10.79768936

[...]

 d Force = 0.0000000E+00[ 0.000E+00, 0.000E+00]  d Energy = 0.2419397E-02-0.242E-02
 d Force = 0.0000000E+00[ 0.000E+00, 0.000E+00]  d Ewald  =-0.2546703E+01 0.255E+01

 Steepest descent step on ions:
 trial-energy change:   -0.002419  1 .order   -0.002758   -0.015790    0.010275
  (g-gl).g = 0.158E-01      g.g   = 0.158E-01  gl.gl    = 0.000E+00
 g(Force)  = 0.662E-43   g(Stress)= 0.158E-01 ortho     = 0.000E+00
 gamma     =   0.00000
 trial     =   1.00000
 opt step  =   0.60580  (harmonic =   0.60580) maximal distance =0.00000000
 next E    =   -10.802494   (d E  =  -0.00478)

[...]

 eigenvalue-minimisations  :  1184
 total energy-change (2. order) :-0.3075351E-02  (-0.3814186E-02)
 number of electron       8.0000020 magnetization
 augmentation part       -0.4536123 magnetization

[...]

 Broyden mixing:
  rms(total) = 0.71492E-02    rms(broyden)= 0.71478E-02
  rms(prec ) = 0.25765E-01
  weight for this iteration     100.00

 eigenvalues of (default mixing * dielectric matrix)
  average eigenvalue GAMMA=   2.2995
  2.2995

[...]

--------------------------------------- Iteration      3(   3)  ---------------------------------------

 eigenvalue-minimisations  :   720
 total energy-change (2. order) : 0.3260081E-03  (-0.6640988E-04)
 number of electron       8.0000020 magnetization
 augmentation part       -0.4540274 magnetization

 Free energy of the ion-electron system (eV)
  alpha Z        PSCENC =         3.29618042
  Ewald energy   TEWEN  =      -227.01391372
  -Hartree energ DENC   =       -15.14347625
  -exchange      EXHF   =         0.00000000
  -V(xc)+E(xc)   XCENC  =       -18.03544762
  PAW double counting   =        75.18031028      -40.21003094
  entropy T*S    EENTRO =        -0.00002992
  eigenvalues    EBANDS =         5.01168549
  atomic energy  EATOM  =       206.11247263
  Solvation  Ediel_sol  =         0.00000000
  free energy    TOTEN  =       -10.80224963 eV

  energy without entropy =      -10.80221971  energy(sigma->0) =      -10.80223467

 average (electrostatic) potential at core
  the test charge radii are     0.9892
  (the norm of the test charge is              1.0000)
       1 -83.4779       2 -83.4779

 E-fermi :   5.9749     XC(G=0):  -9.3317     alpha+bet :-11.7424

[...]

 k-point    60 :      -0.4375    0.4375    0.4375
  band No.  band energies     occupation
      1      -3.7607      2.00000
      2      -1.1305      2.00000
      3       3.2621      2.00000
      4       4.2164      2.00000
      5       7.8676      0.00000
      6       9.1888      0.00000
      7       9.6410      0.00000
      8      13.8030      0.00000

 soft charge-density along one line, spin component           1
         0         1         2         3         4         5         6         7         8         9
 total charge-density along one line

------------------------ aborting loop because EDIFF is reached ----------------------------------------

  FORCE on cell =-STRESS in cart. coord.  units (eV):
  Direction    XX          YY          ZZ          XY          YZ          ZX
  Alpha Z     3.29618     3.29618     3.29618
  Ewald     -75.67134   -75.67134   -75.67134     0.00000     0.00000    -0.00000
  Hartree     5.04862     5.04862     5.04862    -0.00000    -0.00000    -0.00000
  E(xc)     -25.28507   -25.28507   -25.28507     0.00000     0.00000     0.00000
  Local     -29.73237   -29.73237   -29.73237     0.00009     0.00009     0.00009
  n-local    77.67940    80.19804    75.47474     1.04601    -1.13728     0.04894
  augment   -11.55359   -11.55359   -11.55359    -0.00009    -0.00009    -0.00009
  Kinetic    57.58550    55.61738    55.09774     0.81097    -0.90526     0.04630
  Fock        0.00000     0.00000     0.00000     0.00000     0.00000     0.00000
  Total      -0.01329    -0.01329    -0.01329     0.00000     0.00000    -0.00000
  in kB      -0.52136    -0.52136    -0.52136     0.00000     0.00000    -0.00000

 VOLUME and BASIS-vectors are now :
  energy-cutoff  :      200.00
  volume of cell :       40.85
      direct lattice vectors                 reciprocal lattice vectors
     0.000000000  2.733532760  2.733532760    -0.182913484  0.182913484  0.182913484
     2.733532760  0.000000000  2.733532760     0.182913484 -0.182913484  0.182913484
     2.733532760  2.733532760 -0.000000000     0.182913484  0.182913484 -0.182913484

  length of vectors
     3.865799103  3.865799103  3.865799103     0.316815447  0.316815447  0.316815447

 FORCES acting on ions
    electron-ion (+dipol)            ewald-force                    non-local-force                 convergence-correction
   0.977E-05 0.977E-05 0.103E-04   -.199E-14 -.117E-14 -.398E-14   0.634E-17 0.981E-17 0.144E-16   0.139E-06 0.139E-06 0.139E-06
   -.977E-05 -.977E-05 -.103E-04   0.195E-14 0.886E-15 0.340E-14   -.805E-17 -.115E-16 -.168E-16   -.139E-06 -.139E-06 -.139E-06
   -.484E-13 -.250E-13 -.673E-13   -.361E-16 -.280E-15 -.575E-15   -.171E-17 -.171E-17 -.238E-17   0.118E-14 0.331E-14 0.106E-14

 POSITION                                       TOTAL-FORCE (eV/Angst)
      2.73353      2.73353      2.73353        -0.000000     -0.000000     -0.000000
      4.10030      4.10030      4.10030         0.000000      0.000000      0.000000
    total drift:                               -0.000000     -0.000000     -0.000000

  FREE ENERGIE OF THE ION-ELECTRON SYSTEM (eV)
  free  energy   TOTEN  =       -10.80224963 eV

  energy  without entropy=      -10.80221971  energy(sigma->0) =      -10.80223467

 d Force = 0.0000000E+00[ 0.000E+00, 0.000E+00]  d Energy = 0.2118973E-02-0.212E-02
 d Force = 0.0000000E+00[ 0.000E+00, 0.000E+00]  d Ewald  = 0.9970916E+00-0.997E+00

 reached required accuracy - stopping structural energy minimisation
 writing wavefunctions