 vasp.5.4.4.18Apr17-6-g9f103f2a35 (build Dec 09 2018 21:25:21) complex

 executed on IFC18.0.1.163_CrayMP date 2019.03.20  09:53:53

 INCAR:
 POTCAR:   PAW_PBE Si 05Jan2001

 POTCAR:   PAW_PBE Si 05Jan2001
   VRHFIN =Si: s2p2

   TITEL  = PAW_PBE Si 05Jan2001
   POMASS =   28.085; ZVAL   =    4.000    mass and valenz
   ENMAX  =  245.345; ENMIN  =  184.009 eV
   QCUT   =   -4.246; QGAM   =    8.493    optimization parameters

   Description
     l     E      TYP  RCUT    TYP  RCUT
     0   .000     23  1.900
     0   .000     23  1.900
     1   .000     23  1.900
     1   .000     23  1.900
     2   .000      7  1.900

 PAW_PBE Si 05Jan2001                   :

 POSCAR: Si2
  positions in direct lattice
 exchange correlation table for  LEXCH =        8
   RHO(1)=    0.500       N(1)  =     2000
   RHO(2)=  100.500       N(2)  =     4000

 ion  position               nearest neighbor table
   1  0.500  0.500  0.500-   2 2.35   2 2.35   2 2.35   2 2.35
   2  0.750  0.750  0.750-   1 2.35   1 2.35   1 2.35   1 2.35

  LATTYP: Found a face centered cubic cell.
 ALAT       =     5.4300000000

  Lattice vectors:

 A1 = (   0.0000000000,   2.7150000000,   2.7150000000)
 A2 = (   2.7150000000,   0.0000000000,   2.7150000000)
 A3 = (   2.7150000000,   2.7150000000,   0.0000000000)

Analysis of symmetry for initial positions (statically):
 Subroutine PRICEL returns:
 Original cell was already a primitive cell.

 Routine SETGRP: Setting up the symmetry group for a
 face centered cubic supercell.

 Subroutine GETGRP returns: Found 48 space group operations
 (whereof 24 operations were pure point group operations)
 out of a pool of 48 trial point group operations.

The static configuration has the point symmetry T_d .
 The point group associated with its full space group is O_h .

Analysis of symmetry for dynamics (positions and initial velocities):
 Subroutine PRICEL returns:
 Original cell was already a primitive cell.

 Routine SETGRP: Setting up the symmetry group for a
 face centered cubic supercell.

 Subroutine GETGRP returns: Found 48 space group operations
 (whereof 24 operations were pure point group operations)
 out of a pool of 48 trial point group operations.

The dynamic configuration has the point symmetry T_d .
 The point group associated with its full space group is O_h .

 Subroutine INISYM returns: Found 48 space group operations
 (whereof 24 operations are pure point group operations),
 and found     1 'primitive' translations

 KPOINTS: Automatic kpoint scheme

Automatic generation of k-mesh.
Space group operators:
 irot       det(A)        alpha          n_x          n_y          n_z        tau_x        tau_y        tau_z
    1     1.000000     0.000001     1.000000     0.000000     0.000000     0.000000     0.000000     0.000000
    2     1.000000   120.000000    -0.577350    -0.577350    -0.577350     0.000000     0.000000     0.000000
    3     1.000000   120.000000     0.577350     0.577350     0.577350     0.000000     0.000000     0.000000
    4    -1.000000    90.000000    -0.000000    -0.000000    -1.000000     0.000000     0.000000     0.000000
    5    -1.000000   180.000000    -0.000000     0.707107     0.707107     0.000000     0.000000     0.000000
    6    -1.000000    90.000000    -0.000000     1.000000    -0.000000     0.000000     0.000000     0.000000
    7     1.000000   180.000000     0.000000     0.000000    -1.000000     0.000000     0.000000     0.000000
    8     1.000000   120.000000    -0.577350     0.577350     0.577350     0.000000     0.000000     0.000000
    9     1.000000   120.000000    -0.577350     0.577350    -0.577350     0.000000     0.000000     0.000000
   10    -1.000000    90.000000     0.000000     0.000000     1.000000     0.000000     0.000000     0.000000
   11    -1.000000    90.000000    -1.000000     0.000000    -0.000000     0.000000     0.000000     0.000000
   12    -1.000000   180.000000     0.707107     0.000000     0.707107     0.000000     0.000000     0.000000
   13     1.000000   120.000000     0.577350    -0.577350     0.577350     0.000000     0.000000     0.000000
   14     1.000000   120.000000    -0.577350    -0.577350     0.577350     0.000000     0.000000     0.000000
   15     1.000000   180.000000     1.000000     0.000000     0.000000     0.000000     0.000000     0.000000
   16    -1.000000    90.000000     0.000000    -1.000000     0.000000     0.000000     0.000000     0.000000
   17    -1.000000   180.000000     0.707107     0.707107    -0.000000     0.000000     0.000000     0.000000
   18    -1.000000    90.000000     1.000000     0.000000     0.000000     0.000000     0.000000     0.000000
   19     1.000000   120.000000     0.577350    -0.577350    -0.577350     0.000000     0.000000     0.000000
   20     1.000000   180.000000     0.000000    -1.000000     0.000000     0.000000     0.000000     0.000000
   21     1.000000   120.000000     0.577350     0.577350    -0.577350     0.000000     0.000000     0.000000
   22    -1.000000   180.000000    -0.000000    -0.707107     0.707107     0.000000     0.000000     0.000000
   23    -1.000000   180.000000     0.707107    -0.707107    -0.000000     0.000000     0.000000     0.000000
   24    -1.000000   180.000000    -0.707107     0.000000     0.707107     0.000000     0.000000     0.000000
   25    -1.000000     0.000001     1.000000     0.000000     0.000000     0.250000     0.250000     0.250000
   26    -1.000000   120.000000    -0.577350    -0.577350    -0.577350     0.250000     0.250000     0.250000
   27    -1.000000   120.000000     0.577350     0.577350     0.577350     0.250000     0.250000     0.250000
   28     1.000000    90.000000    -0.000000    -0.000000    -1.000000     0.250000     0.250000     0.250000
   29     1.000000   180.000000    -0.000000     0.707107     0.707107     0.250000     0.250000     0.250000
   30     1.000000    90.000000    -0.000000     1.000000    -0.000000     0.250000     0.250000     0.250000
   31    -1.000000   180.000000     0.000000     0.000000    -1.000000     0.250000     0.250000     0.250000
   32    -1.000000   120.000000    -0.577350     0.577350     0.577350     0.250000     0.250000     0.250000
   33    -1.000000   120.000000    -0.577350     0.577350    -0.577350     0.250000     0.250000     0.250000
   34     1.000000    90.000000     0.000000     0.000000     1.000000     0.250000     0.250000     0.250000
   35     1.000000    90.000000    -1.000000     0.000000    -0.000000     0.250000     0.250000     0.250000
   36     1.000000   180.000000     0.707107     0.000000     0.707107     0.250000     0.250000     0.250000
   37    -1.000000   120.000000     0.577350    -0.577350     0.577350     0.250000     0.250000     0.250000
   38    -1.000000   120.000000    -0.577350    -0.577350     0.577350     0.250000     0.250000     0.250000
   39    -1.000000   180.000000     1.000000     0.000000     0.000000     0.250000     0.250000     0.250000
   40     1.000000    90.000000     0.000000    -1.000000     0.000000     0.250000     0.250000     0.250000
   41     1.000000   180.000000     0.707107     0.707107    -0.000000     0.250000     0.250000     0.250000
   42     1.000000    90.000000     1.000000     0.000000     0.000000     0.250000     0.250000     0.250000
   43    -1.000000   120.000000     0.577350    -0.577350    -0.577350     0.250000     0.250000     0.250000
   44    -1.000000   180.000000     0.000000    -1.000000     0.000000     0.250000     0.250000     0.250000
   45    -1.000000   120.000000     0.577350     0.577350    -0.577350     0.250000     0.250000     0.250000
   46     1.000000   180.000000    -0.000000    -0.707107     0.707107     0.250000     0.250000     0.250000
   47     1.000000   180.000000     0.707107    -0.707107    -0.000000     0.250000     0.250000     0.250000
   48     1.000000   180.000000    -0.707107     0.000000     0.707107     0.250000     0.250000     0.250000

 Subroutine IBZKPT returns following result:

 Found     20 irreducible k-points:

 Following reciprocal coordinates:
            Coordinates               Weight
  0.000000  0.000000  0.000000      1.000000
  0.142857 -0.000000 -0.000000      8.000000
  0.285714 -0.000000  0.000000      8.000000
  0.428571 -0.000000  0.000000      8.000000
  0.142857  0.142857  0.000000      6.000000
  0.285714  0.142857 -0.000000     24.000000
  0.428571  0.142857  0.000000     24.000000
 -0.428571  0.142857 -0.000000     24.000000
 -0.285714  0.142857 -0.000000     24.000000
 -0.142857  0.142857 -0.000000     12.000000
  0.285714  0.285714  0.000000      6.000000
  0.428571  0.285714 -0.000000     24.000000
 -0.428571  0.285714  0.000000     24.000000
 -0.285714  0.285714 -0.000000     12.000000
  0.428571  0.428571  0.000000      6.000000
 -0.428571  0.428571 -0.000000     12.000000
  0.428571  0.285714  0.142857     24.000000
 -0.428571  0.285714  0.142857     48.000000
 -0.428571  0.428571  0.142857     24.000000
 -0.285714  0.428571  0.142857     24.000000

 Following cartesian coordinates:
            Coordinates               Weight
  0.000000  0.000000  0.000000      1.000000
 -0.026309  0.026309  0.026309      8.000000
 -0.052618  0.052618  0.052618      8.000000
 -0.078927  0.078927  0.078927      8.000000
 -0.000000  0.000000  0.052618      6.000000
 -0.026309  0.026309  0.078927     24.000000
 -0.052618  0.052618  0.105235     24.000000
  0.105235 -0.105235 -0.052618     24.000000
  0.078927 -0.078927 -0.026309     24.000000
  0.052618 -0.052618  0.000000     12.000000
  0.000000  0.000000  0.105235      6.000000
 -0.026309  0.026309  0.131544     24.000000
  0.131544 -0.131544 -0.026309     24.000000
  0.105235 -0.105235  0.000000     12.000000
  0.000000  0.000000  0.157853      6.000000
  0.157853 -0.157853  0.000000     12.000000
  0.000000  0.052618  0.105235     24.000000
  0.157853 -0.105235 -0.052618     48.000000
  0.184162 -0.131544 -0.026309     24.000000
  0.157853 -0.105235 -0.000000     24.000000

 SYSTEM =  unknown system
 POSCAR =  Si2

 Startparameter for this run:
   NWRITE =      2    write-flag & timer
   PREC   = normal    normal or accurate (medium, high low for compatibility)
   ISTART =      0    job   : 0-new  1-cont  2-samecut
   ICHARG =      2    charge: 1-file 2-atom 10-const
   ISPIN  =      1    spin polarized calculation?
   LNONCOLLINEAR =      F non collinear calculations
   LSORBIT =      F    spin-orbit coupling
   INIWAV =      1    electr: 0-lowe 1-rand  2-diag
   LASPH  =      F    aspherical Exc in radial PAW
   METAGGA=      F    non-selfconsistent MetaGGA calc.

 Electronic Relaxation 1
   ENCUT  =  250.0 eV  18.37 Ry    4.29 a.u.   4.95  4.95  4.95*2*pi/ulx,y,z
   ENINI  =  250.0     initial cutoff
   ENAUG  =  322.1 eV  augmentation charge cutoff
   NELM   =     60;   NELMIN=  2; NELMDL= -5     # of ELM steps
   EDIFF  = 0.4E-03   stopping-criterion for ELM
   LREAL  =      F    real-space projection
   NLSPLINE    = F    spline interpolate recip. space projectors
   LCOMPAT=      F    compatible to vasp.4.4
   GGA_COMPAT  = T    GGA compatible to vasp.4.4-vasp.4.6
   LMAXPAW     = -100 max onsite density
[...]
  (WPLASMAI=    0.000 imaginary part of plasma frequency in eV, 0.658/RTIME)
   DFIELD  = 0.0000000 0.0000000 0.0000000 field for delta impulse in time

 Orbital magnetization related:
   ORBITALMAG=     F  switch on orbital magnetization
   LCHIMAG   =     F  perturbation theory with respect to B field
   DQ        =  0.001000  dq finite difference perturbation B field
   LLRAUG    =     F  two centre corrections for induced B field

 conjugate gradient relaxation of ions
 charge density and potential will be updated during run
 non-spin polarized calculation
 Variant of blocked Davidson
 Davidson routine will perform the subspace rotation
 perform sub-space diagonalisation
    after iterative eigenvector-optimisation
 modified Broyden-mixing scheme, WC =      100.0
 initial mixing is a Kerker type mixing with AMIX =  0.4000 and BMIX =      1.0000
 Hartree-type preconditioning will be used
 using additional bands            4
 reciprocal scheme for non local part
 use partial core corrections
 calculate Harris-corrections to forces
   (improved forces if not selfconsistent)
 use gradient corrections
 use of overlap-Matrix (Vanderbilt PP)
 Gauss-broadening in eV      SIGMA  =   0.20

  energy-cutoff  :      250.00
  volume of cell :       40.03
      direct lattice vectors                 reciprocal lattice vectors
     0.000000000  2.715000000  2.715000000    -0.184162063  0.184162063  0.184162063
     2.715000000  0.000000000  2.715000000     0.184162063 -0.184162063  0.184162063
     2.715000000  2.715000000  0.000000000     0.184162063  0.184162063 -0.184162063

  length of vectors
     3.839589822  3.839589822  3.839589822     0.318978049  0.318978049  0.318978049

 k-points in units of 2pi/SCALE and weight: Automatic kpoint scheme
   0.00000000  0.00000000  0.00000000       0.003
  -0.02630887  0.02630887  0.02630887       0.023
  -0.05261773  0.05261773  0.05261773       0.023
  -0.07892660  0.07892660  0.07892660       0.023
  -0.00000000  0.00000000  0.05261773       0.017
  -0.02630887  0.02630887  0.07892660       0.070
  -0.05261773  0.05261773  0.10523546       0.070
   0.10523546 -0.10523546 -0.05261773       0.070
   0.07892660 -0.07892660 -0.02630887       0.070
   0.05261773 -0.05261773  0.00000000       0.035
  -0.00000000  0.00000000  0.10523546       0.017
  -0.02630887  0.02630887  0.13154433       0.070
   0.13154433 -0.13154433 -0.02630887       0.070
   0.10523546 -0.10523546  0.00000000       0.035
   0.00000000 -0.00000000  0.15785320       0.017
   0.15785320 -0.15785320  0.00000000       0.035
   0.00000000  0.05261773  0.10523546       0.070
   0.15785320 -0.10523546 -0.05261773       0.140
   0.18416206 -0.13154433 -0.02630887       0.070
   0.15785320 -0.10523546 -0.00000000       0.070

 k-points in reciprocal lattice and weights: Automatic kpoint scheme
   0.00000000  0.00000000  0.00000000       0.003
   0.14285714 -0.00000000 -0.00000000       0.023
   0.28571429 -0.00000000  0.00000000       0.023
   0.42857143 -0.00000000  0.00000000       0.023
   0.14285714  0.14285714  0.00000000       0.017
   0.28571429  0.14285714 -0.00000000       0.070
   0.42857143  0.14285714  0.00000000       0.070
  -0.42857143  0.14285714 -0.00000000       0.070
  -0.28571429  0.14285714 -0.00000000       0.070
  -0.14285714  0.14285714 -0.00000000       0.035
   0.28571429  0.28571429  0.00000000       0.017
   0.42857143  0.28571429 -0.00000000       0.070
  -0.42857143  0.28571429  0.00000000       0.070
  -0.28571429  0.28571429 -0.00000000       0.035
   0.42857143  0.42857143  0.00000000       0.017
  -0.42857143  0.42857143 -0.00000000       0.035
   0.42857143  0.28571429  0.14285714       0.070
  -0.42857143  0.28571429  0.14285714       0.140
  -0.42857143  0.42857143  0.14285714       0.070
  -0.28571429  0.42857143  0.14285714       0.070

 position of ions in fractional coordinates (direct lattice)
   0.50000000  0.50000000  0.50000000
   0.75000000  0.75000000  0.75000000

 position of ions in cartesian coordinates  (Angst):
   2.71500000  2.71500000  2.71500000
   4.07250000  4.07250000  4.07250000

 k-point  1 :   0.0000 0.0000 0.0000  plane waves:     339
 k-point  2 :   0.1429-0.0000-0.0000  plane waves:     344
 k-point  3 :   0.2857-0.0000 0.0000  plane waves:     353
 k-point  4 :   0.4286-0.0000 0.0000  plane waves:     356
 k-point  5 :   0.1429 0.1429 0.0000  plane waves:     351
 k-point  6 :   0.2857 0.1429-0.0000  plane waves:     354
 k-point  7 :   0.4286 0.1429 0.0000  plane waves:     357
 k-point  8 :  -0.4286 0.1429-0.0000  plane waves:     365
 k-point  9 :  -0.2857 0.1429-0.0000  plane waves:     356
 k-point 10 :  -0.1429 0.1429-0.0000  plane waves:     361
 k-point 11 :   0.2857 0.2857 0.0000  plane waves:     347
 k-point 12 :   0.4286 0.2857-0.0000  plane waves:     359
 k-point 13 :  -0.4286 0.2857 0.0000  plane waves:     359
 k-point 14 :  -0.2857 0.2857-0.0000  plane waves:     361
 k-point 15 :   0.4286 0.4286 0.0000  plane waves:     359
 k-point 16 :  -0.4286 0.4286-0.0000  plane waves:     359
 k-point 17 :   0.4286 0.2857 0.1429  plane waves:     358
 k-point 18 :  -0.4286 0.2857 0.1429  plane waves:     363
 k-point 19 :  -0.4286 0.4286 0.1429  plane waves:     358
 k-point 20 :  -0.2857 0.4286 0.1429  plane waves:     363

 maximum and minimum number of plane-waves per node :       365      339

 maximum number of plane-waves:       365
 maximum index in each direction:
   IXMAX=    5   IYMAX=    4   IZMAX=    4
   IXMIN=   -5   IYMIN=   -5   IZMIN=   -5

 serial   3D FFT for wavefunctions
 parallel 3D FFT for charge:
    minimum data exchange during FFTs selected (reduces bandwidth)

 Broyden mixing: mesh for mixing (old mesh)
   NGX =  9   NGY =  9   NGZ =  9
  (NGX  = 32   NGY  = 32   NGZ  = 32)
  gives a total of    729 points

 initial charge density was supplied:
 charge density of overlapping atoms calculated
 number of electron       8.0000000 magnetization
 keeping initial charge density in first step

 Maximum index for augmentation-charges          433 (set IRDMAX)

 First call to EWALD:  gamma=   0.518
 Maximum number of real-space cells 3x 3x 3
 Maximum number of reciprocal cells 3x 3x 3

--------------------------------------- Iteration      1(   1)  ---------------------------------------

 eigenvalue-minimisations  :   320
 total energy-change (2. order) : 0.6365658E+00  (-0.2311965E+03)
 number of electron       8.0000000 magnetization
 augmentation part        8.0000000 magnetization

 Free energy of the ion-electron system (eV)
  alpha Z        PSCENC =         3.36414203
  Ewald energy   TEWEN  =      -228.56352493
  -Hartree energ DENC   =       -11.00108243
  -exchange      EXHF   =         0.00000000
  -V(xc)+E(xc)   XCENC  =       -18.60181216
  PAW double counting   =        65.95520812      -30.76852678
  entropy T*S    EENTRO =        -0.01486272
  eigenvalues    EBANDS =        14.14352549
  atomic energy  EATOM  =       206.12349923
  Solvation  Ediel_sol  =         0.00000000
  free energy    TOTEN  =         0.63656583 eV

  energy without entropy =        0.65142856  energy(sigma->0) =        0.64399719

[...]

 eigenvalue-minimisations  :   512
 total energy-change (2. order) :-0.1150673E+02  (-0.1081083E+02)
 number of electron       8.0000000 magnetization
 augmentation part        8.0000000 magnetization

[...]

 Broyden mixing:
  rms(total) = 0.30106E+00    rms(broyden)= 0.30102E+00
  rms(prec ) = 0.87392E+00
  weight for this iteration     100.00

[...]

 eigenvalues of (default mixing * dielectric matrix)
  average eigenvalue GAMMA=   2.4328
  2.4328

[...]

 average (electrostatic) potential at core
  the test charge radii are     0.9892
  (the norm of the test charge is              1.0000)
       1 -83.2468       2 -83.2468

 E-fermi :   6.1107     XC(G=0):  -9.4123     alpha+bet :-11.9845

 k-point     1 :       0.0000    0.0000    0.0000
  band No.  band energies     occupation
      1      -6.1292      2.00000
      2       5.8432      1.94146
      3       5.8432      1.94145
      4       5.8432      1.94145
      5       8.4109      0.00000
      6       8.4110      0.00000
      7       8.4110      0.00000
      8       9.2096      0.00000

[...]

 soft charge-density along one line, spin component           1
         0         1         2         3         4         5         6         7         8         9
 total charge-density along one line

------------------------ aborting loop because EDIFF is reached ----------------------------------------

  FORCE on cell =-STRESS in cart. coord.  units (eV):
  Direction    XX          YY          ZZ          XY          YZ          ZX
  Alpha Z     3.36414     3.36414     3.36414
  Ewald     -76.18788   -76.18788   -76.18788    -0.00000    -0.00000     0.00000
  Hartree     4.97795     4.97795     4.97795    -0.00000    -0.00000    -0.00000
  E(xc)     -25.38954   -25.38954   -25.38954     0.00000     0.00000     0.00000
  Local     -29.34804   -29.34804   -29.34804     0.00005     0.00005     0.00005
  n-local    79.20879    80.19747    74.47492     2.31940    -1.18584     0.65772
  augment   -11.61077   -11.61077   -11.61077    -0.00004    -0.00004    -0.00004
  Kinetic    58.65452    56.39630    55.03229     3.52702    -0.80611     0.96686
  Fock        0.00000     0.00000     0.00000     0.00000     0.00000     0.00000
  Total       0.46063     0.46063     0.46063    -0.00000    -0.00000     0.00000
  in kB      18.43825    18.43825    18.43825    -0.00000    -0.00000     0.00000

 VOLUME and BASIS-vectors are now :
  energy-cutoff  :      250.00
  volume of cell :       40.03
      direct lattice vectors                 reciprocal lattice vectors
     0.000000000  2.715000000  2.715000000    -0.184162063  0.184162063  0.184162063
     2.715000000  0.000000000  2.715000000     0.184162063 -0.184162063  0.184162063
     2.715000000  2.715000000  0.000000000     0.184162063  0.184162063 -0.184162063

[...]

 FORCES acting on ions
    electron-ion (+dipol)            ewald-force                    non-local-force                 convergence-correction
   0.280E-05 0.280E-05 0.273E-05   -.476E-15 -.149E-14 0.391E-14   0.133E-15 0.429E-16 0.814E-16   -.148E-05 -.148E-05 -.148E-05
   -.280E-05 -.280E-05 -.273E-05   0.623E-15 0.106E-14 -.375E-14   -.139E-15 -.417E-16 -.813E-16   0.148E-05 0.148E-05 0.148E-05
   0.113E-12 0.391E-13 -.134E-14   0.147E-15 -.426E-15 0.164E-15   -.574E-17 0.120E-17 0.520E-19   0.100E-14 -.163E-14 -.389E-14

 POSITION                                       TOTAL-FORCE (eV/Angst)
      2.71500      2.71500      2.71500        -0.000000      0.000000     -0.000000
      4.07250      4.07250      4.07250         0.000000     -0.000000      0.000000
    total drift:                                0.000000      0.000000     -0.000000

  FREE ENERGIE OF THE ION-ELECTRON SYSTEM (eV)
  free  energy   TOTEN  =       -10.81442036 eV

  energy  without entropy=      -10.81407128  energy(sigma->0) =      -10.81424582

[...]

 d Force = 0.0000000E+00[ 0.000E+00, 0.000E+00]  d Energy = 0.2266703E-02-0.227E-02
 d Force = 0.0000000E+00[ 0.000E+00, 0.000E+00]  d Ewald  =-0.2511643E+01 0.251E+01

 Steepest descent step on ions:
 trial-energy change:   -0.002267  1 .order   -0.002595   -0.015354    0.010164
  (g-gl).g = 0.154E-01      g.g   = 0.154E-01  gl.gl    = 0.000E+00
 g(Force)  = 0.216E-45   g(Stress)= 0.154E-01 ortho     = 0.000E+00
 gamma     =   0.00000
 trial     =   1.00000
 opt step  =   0.60169  (harmonic =   0.60169) maximal distance =0.00000000
 next E    =   -10.819040   (d E  =  -0.00462)

[...]

 eigenvalue-minimisations  :   360
 total energy-change (2. order) :-0.3064508E-02  (-0.3775113E-02)
 number of electron       7.9999996 magnetization
 augmentation part       -0.4553974 magnetization

[...]

 Broyden mixing:
  rms(total) = 0.71081E-02    rms(broyden)= 0.71066E-02
  rms(prec ) = 0.25659E-01
  weight for this iteration     100.00

 eigenvalues of (default mixing * dielectric matrix)
  average eigenvalue GAMMA=   2.2965
  2.2965

[...]

--------------------------------------- Iteration      3(   3)  ---------------------------------------

 eigenvalue-minimisations  :   248
 total energy-change (2. order) : 0.3310869E-03  (-0.6587179E-04)
 number of electron       7.9999996 magnetization
 augmentation part       -0.4557967 magnetization

 Free energy of the ion-electron system (eV)
  alpha Z        PSCENC =         3.29756270
  Ewald energy   TEWEN  =      -227.04564263
  -Hartree energ DENC   =       -15.17085091
  -exchange      EXHF   =         0.00000000
  -V(xc)+E(xc)   XCENC  =       -18.04390490
  PAW double counting   =        74.29926554      -39.32365693
  entropy T*S    EENTRO =        -0.00026199
  eigenvalues    EBANDS =         5.04518587
  atomic energy  EATOM  =       206.12349923
  Solvation  Ediel_sol  =         0.00000000
  free energy    TOTEN  =       -10.81880402 eV

  energy without entropy =      -10.81854203  energy(sigma->0) =      -10.81867303

 average (electrostatic) potential at core
  the test charge radii are     0.9892
  (the norm of the test charge is              1.0000)
       1 -83.4655       2 -83.4655

 E-fermi :   5.9319     XC(G=0):  -9.3307     alpha+bet :-11.7474

[...]

 k-point    20 :      -0.2857    0.4286    0.1429
  band No.  band energies     occupation
      1      -2.5226      2.00000
      2      -1.4594      2.00000
      3       1.4846      2.00000
      4       2.6040      2.00000
      5       8.3914      0.00000
      6      10.4923      0.00000
      7      11.2288      0.00000
      8      11.3920      0.00000

 soft charge-density along one line, spin component           1
         0         1         2         3         4         5         6         7         8         9
 total charge-density along one line

------------------------ aborting loop because EDIFF is reached ----------------------------------------

  FORCE on cell =-STRESS in cart. coord.  units (eV):
  Direction    XX          YY          ZZ          XY          YZ          ZX
  Alpha Z     3.29756     3.29756     3.29756
  Ewald     -75.68191   -75.68191   -75.68191     0.00000     0.00000    -0.00000
  Hartree     5.05775     5.05775     5.05775    -0.00000    -0.00000    -0.00000
  E(xc)     -25.27771   -25.27771   -25.27771     0.00001     0.00001     0.00001
  Local     -29.62866   -29.62866   -29.62866     0.00005     0.00005     0.00005
  n-local    78.82925    79.81484    74.11824     2.27567    -1.15916     0.64074
  augment   -11.59904   -11.59904   -11.59904    -0.00005    -0.00005    -0.00005
  Kinetic    58.20388    56.07290    54.41778     3.52584    -0.83513     0.97113
  Fock        0.00000     0.00000     0.00000     0.00000     0.00000     0.00000
  Total      -0.01305    -0.01305    -0.01305    -0.00000    -0.00000     0.00000
  in kB      -0.51200    -0.51200    -0.51200    -0.00000    -0.00000     0.00000

 VOLUME and BASIS-vectors are now :
  energy-cutoff  :      250.00
  volume of cell :       40.83
      direct lattice vectors                 reciprocal lattice vectors
     0.000000000  2.733150758  2.733150758    -0.182939049  0.182939049  0.182939049
     2.733150758 -0.000000000  2.733150758     0.182939049 -0.182939049  0.182939049
     2.733150758  2.733150758  0.000000000     0.182939049  0.182939049 -0.182939049

  length of vectors
     3.865258870  3.865258870  3.865258870     0.316859727  0.316859727  0.316859727

 FORCES acting on ions
    electron-ion (+dipol)            ewald-force                    non-local-force                 convergence-correction
   0.361E-05 0.361E-05 0.362E-05   -.125E-14 -.107E-14 -.120E-14   0.907E-16 0.118E-15 0.669E-16   0.119E-06 0.119E-06 0.119E-06
   -.361E-05 -.361E-05 -.362E-05   0.110E-14 0.179E-14 0.138E-14   -.131E-15 -.103E-15 -.779E-16   -.119E-06 -.119E-06 -.119E-06
   0.101E-12 0.580E-13 -.757E-14   -.148E-15 0.724E-15 0.189E-15   -.399E-16 0.157E-16 -.110E-16   0.252E-14 0.125E-14 0.634E-15

 POSITION                                       TOTAL-FORCE (eV/Angst)
      2.73315      2.73315      2.73315         0.000000      0.000000      0.000000
      4.09973      4.09973      4.09973        -0.000000     -0.000000     -0.000000
    total drift:                                0.000000      0.000000     -0.000000

  FREE ENERGIE OF THE ION-ELECTRON SYSTEM (eV)
  free  energy   TOTEN  =       -10.81880402 eV

  energy  without entropy=      -10.81854203  energy(sigma->0) =      -10.81867303

 d Force = 0.0000000E+00[ 0.000E+00, 0.000E+00]  d Energy = 0.2116956E-02-0.212E-02
 d Force = 0.0000000E+00[ 0.000E+00, 0.000E+00]  d Ewald  = 0.9937609E+00-0.994E+00

 reached required accuracy - stopping structural energy minimisation
 writing wavefunctions