 vasp.5.4.4.18Apr17-6-g9f103f2a35 (build Dec 09 2018 21:25:21) complex

 executed on IFC18.0.1.163_CrayMP date 2019.03.20  09:49:32

 INCAR:
 POTCAR:   PAW_PBE Si 05Jan2001

 POTCAR:   PAW_PBE Si 05Jan2001
   VRHFIN =Si: s2p2

   TITEL  = PAW_PBE Si 05Jan2001
   POMASS =   28.085; ZVAL   =    4.000    mass and valenz
   ENMAX  =  245.345; ENMIN  =  184.009 eV
   QCUT   =   -4.246; QGAM   =    8.493    optimization parameters

   Description
     l     E      TYP  RCUT    TYP  RCUT
     0   .000     23  1.900
     0   .000     23  1.900
     1   .000     23  1.900
     1   .000     23  1.900
     2   .000      7  1.900

 PAW_PBE Si 05Jan2001                   :

 POSCAR: Si2
  positions in direct lattice
 exchange correlation table for  LEXCH =        8
   RHO(1)=    0.500       N(1)  =     2000
   RHO(2)=  100.500       N(2)  =     4000

 ion  position               nearest neighbor table
   1  0.500  0.500  0.500-   2 2.35   2 2.35   2 2.35   2 2.35
   2  0.750  0.750  0.750-   1 2.35   1 2.35   1 2.35   1 2.35

  LATTYP: Found a face centered cubic cell.
 ALAT       =     5.4300000000

  Lattice vectors:

 A1 = (   0.0000000000,   2.7150000000,   2.7150000000)
 A2 = (   2.7150000000,   0.0000000000,   2.7150000000)
 A3 = (   2.7150000000,   2.7150000000,   0.0000000000)

Analysis of symmetry for initial positions (statically):
 Subroutine PRICEL returns:
 Original cell was already a primitive cell.

 Routine SETGRP: Setting up the symmetry group for a
 face centered cubic supercell.

 Subroutine GETGRP returns: Found 48 space group operations
 (whereof 24 operations were pure point group operations)
 out of a pool of 48 trial point group operations.

The static configuration has the point symmetry T_d .
 The point group associated with its full space group is O_h .

Analysis of symmetry for dynamics (positions and initial velocities):
 Subroutine PRICEL returns:
 Original cell was already a primitive cell.

 Routine SETGRP: Setting up the symmetry group for a
 face centered cubic supercell.

 Subroutine GETGRP returns: Found 48 space group operations
 (whereof 24 operations were pure point group operations)
 out of a pool of 48 trial point group operations.

The dynamic configuration has the point symmetry T_d .
 The point group associated with its full space group is O_h .

 Subroutine INISYM returns: Found 48 space group operations
 (whereof 24 operations are pure point group operations),
 and found     1 'primitive' translations

 KPOINTS: Automatic kpoint scheme

Automatic generation of k-mesh.
Space group operators:
 irot       det(A)        alpha          n_x          n_y          n_z        tau_x        tau_y        tau_z
    1     1.000000     0.000001     1.000000     0.000000     0.000000     0.000000     0.000000     0.000000
    2     1.000000   120.000000    -0.577350    -0.577350    -0.577350     0.000000     0.000000     0.000000
    3     1.000000   120.000000     0.577350     0.577350     0.577350     0.000000     0.000000     0.000000
    4    -1.000000    90.000000    -0.000000    -0.000000    -1.000000     0.000000     0.000000     0.000000
    5    -1.000000   180.000000    -0.000000     0.707107     0.707107     0.000000     0.000000     0.000000
    6    -1.000000    90.000000    -0.000000     1.000000    -0.000000     0.000000     0.000000     0.000000
    7     1.000000   180.000000     0.000000     0.000000    -1.000000     0.000000     0.000000     0.000000
    8     1.000000   120.000000    -0.577350     0.577350     0.577350     0.000000     0.000000     0.000000
    9     1.000000   120.000000    -0.577350     0.577350    -0.577350     0.000000     0.000000     0.000000
   10    -1.000000    90.000000     0.000000     0.000000     1.000000     0.000000     0.000000     0.000000
   11    -1.000000    90.000000    -1.000000     0.000000    -0.000000     0.000000     0.000000     0.000000
   12    -1.000000   180.000000     0.707107     0.000000     0.707107     0.000000     0.000000     0.000000
   13     1.000000   120.000000     0.577350    -0.577350     0.577350     0.000000     0.000000     0.000000
   14     1.000000   120.000000    -0.577350    -0.577350     0.577350     0.000000     0.000000     0.000000
   15     1.000000   180.000000     1.000000     0.000000     0.000000     0.000000     0.000000     0.000000
   16    -1.000000    90.000000     0.000000    -1.000000     0.000000     0.000000     0.000000     0.000000
   17    -1.000000   180.000000     0.707107     0.707107    -0.000000     0.000000     0.000000     0.000000
   18    -1.000000    90.000000     1.000000     0.000000     0.000000     0.000000     0.000000     0.000000
   19     1.000000   120.000000     0.577350    -0.577350    -0.577350     0.000000     0.000000     0.000000
   20     1.000000   180.000000     0.000000    -1.000000     0.000000     0.000000     0.000000     0.000000
   21     1.000000   120.000000     0.577350     0.577350    -0.577350     0.000000     0.000000     0.000000
   22    -1.000000   180.000000    -0.000000    -0.707107     0.707107     0.000000     0.000000     0.000000
   23    -1.000000   180.000000     0.707107    -0.707107    -0.000000     0.000000     0.000000     0.000000
   24    -1.000000   180.000000    -0.707107     0.000000     0.707107     0.000000     0.000000     0.000000
   25    -1.000000     0.000001     1.000000     0.000000     0.000000     0.250000     0.250000     0.250000
   26    -1.000000   120.000000    -0.577350    -0.577350    -0.577350     0.250000     0.250000     0.250000
   27    -1.000000   120.000000     0.577350     0.577350     0.577350     0.250000     0.250000     0.250000
   28     1.000000    90.000000    -0.000000    -0.000000    -1.000000     0.250000     0.250000     0.250000
   29     1.000000   180.000000    -0.000000     0.707107     0.707107     0.250000     0.250000     0.250000
   30     1.000000    90.000000    -0.000000     1.000000    -0.000000     0.250000     0.250000     0.250000
   31    -1.000000   180.000000     0.000000     0.000000    -1.000000     0.250000     0.250000     0.250000
   32    -1.000000   120.000000    -0.577350     0.577350     0.577350     0.250000     0.250000     0.250000
   33    -1.000000   120.000000    -0.577350     0.577350    -0.577350     0.250000     0.250000     0.250000
   34     1.000000    90.000000     0.000000     0.000000     1.000000     0.250000     0.250000     0.250000
   35     1.000000    90.000000    -1.000000     0.000000    -0.000000     0.250000     0.250000     0.250000
   36     1.000000   180.000000     0.707107     0.000000     0.707107     0.250000     0.250000     0.250000
   37    -1.000000   120.000000     0.577350    -0.577350     0.577350     0.250000     0.250000     0.250000
   38    -1.000000   120.000000    -0.577350    -0.577350     0.577350     0.250000     0.250000     0.250000
   39    -1.000000   180.000000     1.000000     0.000000     0.000000     0.250000     0.250000     0.250000
   40     1.000000    90.000000     0.000000    -1.000000     0.000000     0.250000     0.250000     0.250000
   41     1.000000   180.000000     0.707107     0.707107    -0.000000     0.250000     0.250000     0.250000
   42     1.000000    90.000000     1.000000     0.000000     0.000000     0.250000     0.250000     0.250000
   43    -1.000000   120.000000     0.577350    -0.577350    -0.577350     0.250000     0.250000     0.250000
   44    -1.000000   180.000000     0.000000    -1.000000     0.000000     0.250000     0.250000     0.250000
   45    -1.000000   120.000000     0.577350     0.577350    -0.577350     0.250000     0.250000     0.250000
   46     1.000000   180.000000    -0.000000    -0.707107     0.707107     0.250000     0.250000     0.250000
   47     1.000000   180.000000     0.707107    -0.707107    -0.000000     0.250000     0.250000     0.250000
   48     1.000000   180.000000    -0.707107     0.000000     0.707107     0.250000     0.250000     0.250000

 Subroutine IBZKPT returns following result:

 Found     35 irreducible k-points:

 Following reciprocal coordinates:
            Coordinates               Weight
  0.000000  0.000000  0.000000      1.000000
  0.111111  0.000000  0.000000      8.000000
  0.222222 -0.000000  0.000000      8.000000
  0.333333  0.000000  0.000000      8.000000
  0.444444 -0.000000  0.000000      8.000000
  0.111111  0.111111  0.000000      6.000000
  0.222222  0.111111  0.000000     24.000000
  0.333333  0.111111  0.000000     24.000000
  0.444444  0.111111  0.000000     24.000000
 -0.444444  0.111111  0.000000     24.000000
 -0.333333  0.111111 -0.000000     24.000000
 -0.222222  0.111111  0.000000     24.000000
 -0.111111  0.111111 -0.000000     12.000000
  0.222222  0.222222  0.000000      6.000000
  0.333333  0.222222  0.000000     24.000000
  0.444444  0.222222  0.000000     24.000000
 -0.444444  0.222222  0.000000     24.000000
 -0.333333  0.222222  0.000000     24.000000
 -0.222222  0.222222 -0.000000     12.000000
  0.333333  0.333333  0.000000      6.000000
  0.444444  0.333333  0.000000     24.000000
 -0.444444  0.333333 -0.000000     24.000000
 -0.333333  0.333333  0.000000     12.000000
  0.444444  0.444444  0.000000      6.000000
 -0.444444  0.444444 -0.000000     12.000000
  0.333333  0.222222  0.111111     24.000000
  0.444444  0.222222  0.111111     48.000000
 -0.444444  0.222222  0.111111     48.000000
  0.444444  0.333333  0.111111     24.000000
 -0.444444  0.333333  0.111111     48.000000
 -0.333333  0.333333  0.111111     48.000000
 -0.222222  0.333333  0.111111     24.000000
 -0.444444  0.444444  0.111111     24.000000
 -0.333333  0.444444  0.111111     24.000000
 -0.333333  0.444444  0.222222     24.000000

 Following cartesian coordinates:
            Coordinates               Weight
  0.000000  0.000000  0.000000      1.000000
 -0.020462  0.020462  0.020462      8.000000
 -0.040925  0.040925  0.040925      8.000000
 -0.061387  0.061387  0.061387      8.000000
 -0.081850  0.081850  0.081850      8.000000
  0.000000  0.000000  0.040925      6.000000
 -0.020462  0.020462  0.061387     24.000000
 -0.040925  0.040925  0.081850     24.000000
 -0.061387  0.061387  0.102312     24.000000
  0.102312 -0.102312 -0.061387     24.000000
  0.081850 -0.081850 -0.040925     24.000000
  0.061387 -0.061387 -0.020462     24.000000
  0.040925 -0.040925  0.000000     12.000000
  0.000000 -0.000000  0.081850      6.000000
 -0.020462  0.020462  0.102312     24.000000
 -0.040925  0.040925  0.122775     24.000000
  0.122775 -0.122775 -0.040925     24.000000
  0.102312 -0.102312 -0.020462     24.000000
  0.081850 -0.081850  0.000000     12.000000
  0.000000  0.000000  0.122775      6.000000
 -0.020462  0.020462  0.143237     24.000000
  0.143237 -0.143237 -0.020462     24.000000
  0.122775 -0.122775  0.000000     12.000000
  0.000000 -0.000000  0.163700      6.000000
  0.163700 -0.163700  0.000000     12.000000
  0.000000  0.040925  0.081850     24.000000
 -0.020462  0.061387  0.102312     48.000000
  0.143237 -0.102312 -0.061387     48.000000
 -0.000000  0.040925  0.122775     24.000000
  0.163700 -0.122775 -0.040925     48.000000
  0.143237 -0.102312 -0.020462     48.000000
[...]
   0.04092490 -0.04092490  0.00000000       0.016
   0.00000000 -0.00000000  0.08184981       0.008
  -0.02046245  0.02046245  0.10231226       0.033
  -0.04092490  0.04092490  0.12277471       0.033
   0.12277471 -0.12277471 -0.04092490       0.033
   0.10231226 -0.10231226 -0.02046245       0.033
   0.08184981 -0.08184981 -0.00000000       0.016
   0.00000000  0.00000000  0.12277471       0.008
  -0.02046245  0.02046245  0.14323716       0.033
   0.14323716 -0.14323716 -0.02046245       0.033
   0.12277471 -0.12277471 -0.00000000       0.016
   0.00000000 -0.00000000  0.16369961       0.008
   0.16369961 -0.16369961 -0.00000000       0.016
   0.00000000  0.04092490  0.08184981       0.033
  -0.02046245  0.06138735  0.10231226       0.066
   0.14323716 -0.10231226 -0.06138735       0.066
  -0.00000000  0.04092490  0.12277471       0.033
   0.16369961 -0.12277471 -0.04092490       0.066
   0.14323716 -0.10231226 -0.02046245       0.066
   0.12277471 -0.08184981 -0.00000000       0.033
   0.18416206 -0.14323716 -0.02046245       0.033
   0.16369961 -0.12277471 -0.00000000       0.033
   0.18416206 -0.10231226 -0.02046245       0.033

 k-points in reciprocal lattice and weights: Automatic kpoint scheme
   0.00000000  0.00000000  0.00000000       0.001
   0.11111111  0.00000000  0.00000000       0.011
   0.22222222 -0.00000000  0.00000000       0.011
   0.33333333  0.00000000  0.00000000       0.011
   0.44444444 -0.00000000  0.00000000       0.011
   0.11111111  0.11111111  0.00000000       0.008
   0.22222222  0.11111111  0.00000000       0.033
   0.33333333  0.11111111  0.00000000       0.033
   0.44444444  0.11111111  0.00000000       0.033
  -0.44444444  0.11111111  0.00000000       0.033
  -0.33333333  0.11111111 -0.00000000       0.033
  -0.22222222  0.11111111  0.00000000       0.033
  -0.11111111  0.11111111 -0.00000000       0.016
   0.22222222  0.22222222  0.00000000       0.008
   0.33333333  0.22222222  0.00000000       0.033
   0.44444444  0.22222222  0.00000000       0.033
  -0.44444444  0.22222222  0.00000000       0.033
  -0.33333333  0.22222222  0.00000000       0.033
  -0.22222222  0.22222222 -0.00000000       0.016
   0.33333333  0.33333333  0.00000000       0.008
   0.44444444  0.33333333  0.00000000       0.033
  -0.44444444  0.33333333 -0.00000000       0.033
  -0.33333333  0.33333333  0.00000000       0.016
   0.44444444  0.44444444  0.00000000       0.008
  -0.44444444  0.44444444 -0.00000000       0.016
   0.33333333  0.22222222  0.11111111       0.033
   0.44444444  0.22222222  0.11111111       0.066
  -0.44444444  0.22222222  0.11111111       0.066
   0.44444444  0.33333333  0.11111111       0.033
  -0.44444444  0.33333333  0.11111111       0.066
  -0.33333333  0.33333333  0.11111111       0.066
  -0.22222222  0.33333333  0.11111111       0.033
  -0.44444444  0.44444444  0.11111111       0.033
  -0.33333333  0.44444444  0.11111111       0.033
  -0.33333333  0.44444444  0.22222222       0.033

 position of ions in fractional coordinates (direct lattice)
   0.50000000  0.50000000  0.50000000
   0.75000000  0.75000000  0.75000000

 position of ions in cartesian coordinates  (Angst):
   2.71500000  2.71500000  2.71500000
   4.07250000  4.07250000  4.07250000

 k-point  1 :   0.0000 0.0000 0.0000  plane waves:     259
 k-point  2 :   0.1111 0.0000 0.0000  plane waves:     271
 k-point  3 :   0.2222-0.0000 0.0000  plane waves:     271
 k-point  4 :   0.3333 0.0000 0.0000  plane waves:     256
 k-point  5 :   0.4444-0.0000 0.0000  plane waves:     260
 k-point  6 :   0.1111 0.1111 0.0000  plane waves:     267
 k-point  7 :   0.2222 0.1111 0.0000  plane waves:     260
 k-point  8 :   0.3333 0.1111 0.0000  plane waves:     263
 k-point  9 :   0.4444 0.1111 0.0000  plane waves:     257
 k-point 10 :  -0.4444 0.1111 0.0000  plane waves:     256
 k-point 11 :  -0.3333 0.1111-0.0000  plane waves:     254
 k-point 12 :  -0.2222 0.1111 0.0000  plane waves:     262
 k-point 13 :  -0.1111 0.1111-0.0000  plane waves:     265
 k-point 14 :   0.2222 0.2222 0.0000  plane waves:     258
 k-point 15 :   0.3333 0.2222 0.0000  plane waves:     255
 k-point 16 :   0.4444 0.2222 0.0000  plane waves:     252
 k-point 17 :  -0.4444 0.2222 0.0000  plane waves:     255
 k-point 18 :  -0.3333 0.2222 0.0000  plane waves:     256
 k-point 19 :  -0.2222 0.2222-0.0000  plane waves:     264
 k-point 20 :   0.3333 0.3333 0.0000  plane waves:     250
 k-point 21 :   0.4444 0.3333 0.0000  plane waves:     253
 k-point 22 :  -0.4444 0.3333-0.0000  plane waves:     253
 k-point 23 :  -0.3333 0.3333 0.0000  plane waves:     256
 k-point 24 :   0.4444 0.4444 0.0000  plane waves:     250
 k-point 25 :  -0.4444 0.4444-0.0000  plane waves:     250
 k-point 26 :   0.3333 0.2222 0.1111  plane waves:     259
 k-point 27 :   0.4444 0.2222 0.1111  plane waves:     255
 k-point 28 :  -0.4444 0.2222 0.1111  plane waves:     251
 k-point 29 :   0.4444 0.3333 0.1111  plane waves:     258
 k-point 30 :  -0.4444 0.3333 0.1111  plane waves:     255
 k-point 31 :  -0.3333 0.3333 0.1111  plane waves:     258
 k-point 32 :  -0.2222 0.3333 0.1111  plane waves:     256
 k-point 33 :  -0.4444 0.4444 0.1111  plane waves:     253
 k-point 34 :  -0.3333 0.4444 0.1111  plane waves:     260
 k-point 35 :  -0.3333 0.4444 0.2222  plane waves:     256

 maximum and minimum number of plane-waves per node :       271      250

 maximum number of plane-waves:       271
 maximum index in each direction:
   IXMAX=    4   IYMAX=    4   IZMAX=    4
   IXMIN=   -4   IYMIN=   -4   IZMIN=   -4

 serial   3D FFT for wavefunctions
 parallel 3D FFT for charge:
    minimum data exchange during FFTs selected (reduces bandwidth)

 Broyden mixing: mesh for mixing (old mesh)
   NGX =  9   NGY =  9   NGZ =  9
  (NGX  = 28   NGY  = 28   NGZ  = 28)
  gives a total of    729 points

 initial charge density was supplied:
 charge density of overlapping atoms calculated
 number of electron       8.0000000 magnetization
 keeping initial charge density in first step

 Maximum index for augmentation-charges          361 (set IRDMAX)

 First call to EWALD:  gamma=   0.518
 Maximum number of real-space cells 3x 3x 3
 Maximum number of reciprocal cells 3x 3x 3

--------------------------------------- Iteration      1(   1)  ---------------------------------------

 eigenvalue-minimisations  :   592
 total energy-change (2. order) :-0.2084764E+01  (-0.2102708E+03)
 number of electron       8.0000000 magnetization
 augmentation part        8.0000000 magnetization

 Free energy of the ion-electron system (eV)
  alpha Z        PSCENC =         3.36414203
  Ewald energy   TEWEN  =      -228.56352493
  -Hartree energ DENC   =       -11.00108243
  -exchange      EXHF   =         0.00000000
  -V(xc)+E(xc)   XCENC  =       -18.60172597
  PAW double counting   =        65.95520812      -30.76852678
  entropy T*S    EENTRO =        -0.00852298
  eigenvalues    EBANDS =        11.42679673
  atomic energy  EATOM  =       206.11247263
  Solvation  Ediel_sol  =         0.00000000
  free energy    TOTEN  =        -2.08476359 eV

  energy without entropy =       -2.07624061  energy(sigma->0) =       -2.08050210

[...]

 Broyden mixing:
  rms(total) = 0.29932E+00    rms(broyden)= 0.29930E+00
  rms(prec ) = 0.86845E+00
  weight for this iteration     100.00

[...]

 eigenvalue-minimisations  :   656
 total energy-change (2. order) : 0.1242539E+00  (-0.8054081E-02)
 number of electron       8.0000014 magnetization
 augmentation part       -0.4611533 magnetization

[...]

 eigenvalues of (default mixing * dielectric matrix)
  average eigenvalue GAMMA=   2.4330
  2.4330

[...]

 average (electrostatic) potential at core
  the test charge radii are     0.9892
  (the norm of the test charge is              1.0000)
       1 -83.2536       2 -83.2536

 E-fermi :   6.1286     XC(G=0):  -9.4144     alpha+bet :-11.9845

 k-point     1 :       0.0000    0.0000    0.0000
  band No.  band energies     occupation
      1      -6.1316      2.00000
      2       5.8538      1.94807
      3       5.8538      1.94805
      4       5.8538      1.94805
      5       8.4254      0.00000
      6       8.4254      0.00000
      7       8.4254      0.00000
      8       9.2047      0.00000

[...]

 soft charge-density along one line, spin component           1
         0         1         2         3         4         5         6         7         8         9
 total charge-density along one line

------------------------ aborting loop because EDIFF is reached ----------------------------------------

  FORCE on cell =-STRESS in cart. coord.  units (eV):
  Direction    XX          YY          ZZ          XY          YZ          ZX
  Alpha Z     3.36414     3.36414     3.36414
  Ewald     -76.18788   -76.18788   -76.18788    -0.00000    -0.00000     0.00000
  Hartree     4.96915     4.96915     4.96915    -0.00000    -0.00000    -0.00000
  E(xc)     -25.40102   -25.40102   -25.40102    -0.00000    -0.00000    -0.00000
  Local     -29.45260   -29.45260   -29.45260     0.00008     0.00008     0.00008
  n-local    79.23578    80.45937    74.78240     2.25100    -1.26626     0.59300
  augment   -11.56088   -11.56088   -11.56088    -0.00008    -0.00008    -0.00008
  Kinetic    58.66874    56.08566    54.97896     3.54929    -0.67937     1.01116
  Fock        0.00000     0.00000     0.00000     0.00000     0.00000     0.00000
  Total       0.46790     0.46790     0.46790    -0.00000     0.00000     0.00000
  in kB      18.72922    18.72922    18.72922    -0.00000     0.00000     0.00000

 VOLUME and BASIS-vectors are now :
  energy-cutoff  :      200.00
  volume of cell :       40.03
      direct lattice vectors                 reciprocal lattice vectors
     0.000000000  2.715000000  2.715000000    -0.184162063  0.184162063  0.184162063
     2.715000000  0.000000000  2.715000000     0.184162063 -0.184162063  0.184162063
     2.715000000  2.715000000  0.000000000     0.184162063  0.184162063 -0.184162063

[...]

 FORCES acting on ions
    electron-ion (+dipol)            ewald-force                    non-local-force                 convergence-correction
   0.785E-05 0.785E-05 0.844E-05   -.476E-15 -.149E-14 0.391E-14   -.480E-17 0.214E-17 0.119E-16   -.998E-06 -.998E-06 -.998E-06
   -.785E-05 -.785E-05 -.844E-05   0.623E-15 0.106E-14 -.375E-14   0.180E-16 -.278E-17 -.148E-17   0.998E-06 0.998E-06 0.998E-06
   -.330E-13 -.354E-14 -.508E-13   0.147E-15 -.426E-15 0.164E-15   0.132E-16 -.642E-18 0.104E-16   0.213E-15 -.241E-15 0.837E-15

 POSITION                                       TOTAL-FORCE (eV/Angst)
      2.71500      2.71500      2.71500         0.000000      0.000000      0.000000
      4.07250      4.07250      4.07250        -0.000000     -0.000000     -0.000000
    total drift:                               -0.000000     -0.000000     -0.000000

  FREE ENERGIE OF THE ION-ELECTRON SYSTEM (eV)
  free  energy   TOTEN  =       -10.79547380 eV

  energy  without entropy=      -10.79531316  energy(sigma->0) =      -10.79539348

[...]

 d Force = 0.0000000E+00[ 0.000E+00, 0.000E+00]  d Energy = 0.2420975E-02-0.242E-02
 d Force = 0.0000000E+00[ 0.000E+00, 0.000E+00]  d Ewald  =-0.2550836E+01 0.255E+01

 Steepest descent step on ions:
 trial-energy change:   -0.002421  1 .order   -0.002759   -0.015842    0.010324
  (g-gl).g = 0.158E-01      g.g   = 0.158E-01  gl.gl    = 0.000E+00
 g(Force)  = 0.411E-43   g(Stress)= 0.158E-01 ortho     = 0.000E+00
 gamma     =   0.00000
 trial     =   1.00000
 opt step  =   0.60546  (harmonic =   0.60546) maximal distance =0.00000000
 next E    =   -10.800270   (d E  =  -0.00480)

[...]

 eigenvalue-minimisations  :   680
 total energy-change (2. order) :-0.3093149E-02  (-0.3831910E-02)
 number of electron       8.0000020 magnetization
 augmentation part       -0.4534425 magnetization

[...]

 Broyden mixing:
  rms(total) = 0.71668E-02    rms(broyden)= 0.71655E-02
  rms(prec ) = 0.25835E-01
  weight for this iteration     100.00

 eigenvalues of (default mixing * dielectric matrix)
  average eigenvalue GAMMA=   2.2990
  2.2990

[...]

--------------------------------------- Iteration      3(   3)  ---------------------------------------

 eigenvalue-minimisations  :   392
 total energy-change (2. order) : 0.3351839E-03  (-0.6659334E-04)
 number of electron       8.0000020 magnetization
 augmentation part       -0.4538596 magnetization

 Free energy of the ion-electron system (eV)
  alpha Z        PSCENC =         3.29610905
  Ewald energy   TEWEN  =      -227.01227534
  -Hartree energ DENC   =       -15.14961997
  -exchange      EXHF   =         0.00000000
  -V(xc)+E(xc)   XCENC  =       -18.03458239
  PAW double counting   =        75.19301625      -40.22290534
  entropy T*S    EENTRO =        -0.00011764
  eigenvalues    EBANDS =         5.01787710
  atomic energy  EATOM  =       206.11247263
  Solvation  Ediel_sol  =         0.00000000
  free energy    TOTEN  =       -10.80002565 eV

  energy without entropy =      -10.79990801  energy(sigma->0) =      -10.79996683

 average (electrostatic) potential at core
  the test charge radii are     0.9892
  (the norm of the test charge is              1.0000)
       1 -83.4771       2 -83.4771

 E-fermi :   5.9457     XC(G=0):  -9.3312     alpha+bet :-11.7422

[...]

 k-point    35 :      -0.3333    0.4444    0.2222
  band No.  band energies     occupation
      1      -2.5535      2.00000
      2      -1.4104      2.00000
      3       1.6652      2.00000
      4       2.2961      2.00000
      5       9.5146      0.00000
      6       9.6369      0.00000
      7      10.2406      0.00000
      8      11.9977      0.00000

 soft charge-density along one line, spin component           1
         0         1         2         3         4         5         6         7         8         9
 total charge-density along one line

------------------------ aborting loop because EDIFF is reached ----------------------------------------

  FORCE on cell =-STRESS in cart. coord.  units (eV):
  Direction    XX          YY          ZZ          XY          YZ          ZX
  Alpha Z     3.29611     3.29611     3.29611
  Ewald     -75.67079   -75.67079   -75.67079     0.00000    -0.00000     0.00000
  Hartree     5.05066     5.05066     5.05066    -0.00000    -0.00000    -0.00000
  E(xc)     -25.28588   -25.28588   -25.28588     0.00000     0.00000     0.00000
  Local     -29.73607   -29.73607   -29.73607     0.00009     0.00009     0.00009
  n-local    78.84760    80.06828    74.41338     2.20781    -1.23577     0.57562
  augment   -11.54932   -11.54932   -11.54932    -0.00009    -0.00009    -0.00009
  Kinetic    58.19506    55.77037    54.35070     3.54830    -0.71407     1.01139
  Fock        0.00000     0.00000     0.00000     0.00000     0.00000     0.00000
  Total      -0.01349    -0.01349    -0.01349     0.00000     0.00000    -0.00000
  in kB      -0.52924    -0.52924    -0.52924     0.00000     0.00000    -0.00000

 VOLUME and BASIS-vectors are now :
  energy-cutoff  :      200.00
  volume of cell :       40.85
      direct lattice vectors                 reciprocal lattice vectors
     0.000000000  2.733552489  2.733552489    -0.182912164  0.182912164  0.182912164
     2.733552489 -0.000000000  2.733552489     0.182912164 -0.182912164  0.182912164
     2.733552489  2.733552489  0.000000000     0.182912164  0.182912164 -0.182912164

  length of vectors
     3.865827003  3.865827003  3.865827003     0.316813161  0.316813161  0.316813161

 FORCES acting on ions
    electron-ion (+dipol)            ewald-force                    non-local-force                 convergence-correction
   0.980E-05 0.980E-05 0.105E-04   0.391E-14 0.854E-15 0.887E-14   -.126E-15 -.105E-15 -.999E-16   0.139E-06 0.139E-06 0.139E-06
   -.980E-05 -.980E-05 -.105E-04   -.393E-14 -.835E-15 -.865E-14   0.127E-15 0.996E-16 0.876E-16   -.139E-06 -.139E-06 -.139E-06
   -.224E-13 -.126E-13 -.602E-13   -.285E-16 0.185E-16 0.227E-15   0.141E-17 -.553E-17 -.123E-16   -.258E-15 0.202E-15 0.327E-14

 POSITION                                       TOTAL-FORCE (eV/Angst)
      2.73355      2.73355      2.73355        -0.000000      0.000000      0.000000
      4.10033      4.10033      4.10033         0.000000     -0.000000     -0.000000
    total drift:                               -0.000000     -0.000000     -0.000000

  FREE ENERGIE OF THE ION-ELECTRON SYSTEM (eV)
  free  energy   TOTEN  =       -10.80002565 eV

  energy  without entropy=      -10.79990801  energy(sigma->0) =      -10.79996683

 d Force = 0.0000000E+00[ 0.000E+00, 0.000E+00]  d Energy = 0.2130870E-02-0.213E-02
 d Force = 0.0000000E+00[ 0.000E+00, 0.000E+00]  d Ewald  = 0.9995863E+00-0.100E+01

 reached required accuracy - stopping structural energy minimisation
 writing wavefunctions