 vasp.5.4.4.18Apr17-6-g9f103f2a35 (build Dec 09 2018 21:25:21) complex

 executed on IFC18.0.1.163_CrayMP date 2019.03.20  09:25:35

 INCAR:
 POTCAR:   PAW_PBE Si 05Jan2001

 POTCAR:   PAW_PBE Si 05Jan2001
   VRHFIN =Si: s2p2

   TITEL  = PAW_PBE Si 05Jan2001
   POMASS =   28.085; ZVAL   =    4.000    mass and valenz
   ENMAX  =  245.345; ENMIN  =  184.009 eV
   QCUT   =   -4.246; QGAM   =    8.493    optimization parameters

   Description
     l     E      TYP  RCUT    TYP  RCUT
     0   .000     23  1.900
     0   .000     23  1.900
     1   .000     23  1.900
     1   .000     23  1.900
     2   .000      7  1.900

 PAW_PBE Si 05Jan2001                   :

 POSCAR: Si2
  positions in direct lattice
 exchange correlation table for  LEXCH =        8
   RHO(1)=    0.500       N(1)  =     2000
   RHO(2)=  100.500       N(2)  =     4000

 ion  position               nearest neighbor table
   1  0.250  0.750  0.500-   2 2.53   2 2.53   2 2.53   2 2.53   2 3.11   2 3.11   2 3.11   2 3.11

   2  0.000  0.000  0.000-   1 2.53   1 2.53   1 2.53   1 2.53   1 3.11   1 3.11   1 3.11   1 3.11

  LATTYP: Found a body centered tetragonal cell.
 ALAT       =     4.9000000000
 C/A-ratio  =     0.5200000000

  Lattice vectors:

 A1 = (  -2.4500000000,   2.4500000000,   1.2740000000)
 A2 = (   2.4500000000,  -2.4500000000,   1.2740000000)
 A3 = (   2.4500000000,   2.4500000000,  -1.2740000000)

Analysis of symmetry for initial positions (statically):
 Subroutine PRICEL returns:
 Original cell was already a primitive cell.

 Routine SETGRP: Setting up the symmetry group for a
 body centered tetragonal supercell.

 Subroutine GETGRP returns: Found 16 space group operations
 (whereof  8 operations were pure point group operations)
 out of a pool of 16 trial point group operations.

The static configuration has the point symmetry D_2d.
 The point group associated with its full space group is D_4h.

Analysis of symmetry for dynamics (positions and initial velocities):
 Subroutine PRICEL returns:
 Original cell was already a primitive cell.

 Routine SETGRP: Setting up the symmetry group for a
 body centered tetragonal supercell.

 Subroutine GETGRP returns: Found 16 space group operations
 (whereof  8 operations were pure point group operations)
 out of a pool of 16 trial point group operations.

The dynamic configuration has the point symmetry D_2d.
 The point group associated with its full space group is D_4h.

 Subroutine INISYM returns: Found 16 space group operations
 (whereof  8 operations are pure point group operations),
 and found     1 'primitive' translations

 KPOINTS: Automatic kpoint scheme

Automatic generation of k-mesh.
Space group operators:
 irot       det(A)        alpha          n_x          n_y          n_z        tau_x        tau_y        tau_z
    1     1.000000     0.000000     1.000000     0.000000     0.000000     0.000000     0.000000     0.000000
    2    -1.000000    90.000000    -0.000000    -0.000000    -1.000000     0.000000     0.000000     0.000000
    3     1.000000   180.000000    -0.000000    -0.000000    -1.000000     0.000000     0.000000     0.000000
    4    -1.000000    90.000000    -0.000000     0.000000     1.000000     0.000000     0.000000     0.000000
    5    -1.000000   180.000000     0.000000    -1.000000     0.000000     0.000000     0.000000     0.000000
    6     1.000000   180.000000     0.707107     0.707107    -0.000000     0.000000     0.000000     0.000000
    7    -1.000000   180.000000     1.000000     0.000000     0.000000     0.000000     0.000000     0.000000
    8     1.000000   180.000000     0.707107    -0.707107     0.000000     0.000000     0.000000     0.000000
    9    -1.000000     0.000000     1.000000     0.000000     0.000000     0.250000     0.750000     0.500000
   10     1.000000    90.000000    -0.000000    -0.000000    -1.000000     0.250000     0.750000     0.500000
   11    -1.000000   180.000000    -0.000000    -0.000000    -1.000000     0.250000     0.750000     0.500000
   12     1.000000    90.000000    -0.000000     0.000000     1.000000     0.250000     0.750000     0.500000
   13     1.000000   180.000000     0.000000    -1.000000     0.000000     0.250000     0.750000     0.500000
   14    -1.000000   180.000000     0.707107     0.707107    -0.000000     0.250000     0.750000     0.500000
   15     1.000000   180.000000     1.000000     0.000000     0.000000     0.250000     0.750000     0.500000
   16    -1.000000   180.000000     0.707107    -0.707107     0.000000     0.250000     0.750000     0.500000

 Subroutine IBZKPT returns following result:

 Found    126 irreducible k-points:

 Following reciprocal coordinates:
            Coordinates               Weight
  0.000000  0.000000  0.000000      1.000000
  0.090909 -0.000000  0.000000      8.000000
  0.181818 -0.000000  0.000000      8.000000
  0.272727 -0.000000  0.000000      8.000000
  0.363636 -0.000000  0.000000      8.000000
  0.454545 -0.000000 -0.000000      8.000000
  0.090909  0.090909  0.000000      8.000000
  0.181818  0.090909 -0.000000     16.000000
  0.272727  0.090909  0.000000     16.000000
  0.363636  0.090909  0.000000     16.000000
  0.454545  0.090909 -0.000000     16.000000
 -0.454545  0.090909 -0.000000     16.000000
 -0.363636  0.090909  0.000000     16.000000
 -0.272727  0.090909  0.000000     16.000000
 -0.181818  0.090909  0.000000     16.000000
 -0.090909  0.090909  0.000000      4.000000
  0.181818  0.181818  0.000000      8.000000
  0.272727  0.181818  0.000000     16.000000
  0.363636  0.181818 -0.000000     16.000000
  0.454545  0.181818 -0.000000     16.000000
 -0.454545  0.181818 -0.000000     16.000000
 -0.363636  0.181818  0.000000     16.000000
 -0.272727  0.181818 -0.000000     16.000000
 -0.181818  0.181818  0.000000      4.000000
  0.272727  0.272727 -0.000000      8.000000
  0.363636  0.272727 -0.000000     16.000000
  0.454545  0.272727  0.000000     16.000000
 -0.454545  0.272727  0.000000     16.000000
 -0.363636  0.272727 -0.000000     16.000000
 -0.272727  0.272727 -0.000000      4.000000
  0.363636  0.363636  0.000000      8.000000
  0.454545  0.363636 -0.000000     16.000000
 -0.454545  0.363636 -0.000000     16.000000
 -0.363636  0.363636  0.000000      4.000000
  0.454545  0.454545 -0.000000      8.000000
 -0.454545  0.454545 -0.000000      4.000000
  0.090909  0.090909  0.090909      8.000000
  0.181818  0.090909  0.090909     16.000000
  0.272727  0.090909  0.090909     16.000000
  0.363636  0.090909  0.090909     16.000000
 -0.090909  0.090909  0.090909      4.000000
  0.181818  0.181818  0.090909      8.000000
  0.272727  0.181818  0.090909     16.000000
  0.363636  0.181818  0.090909     16.000000
  0.454545  0.181818  0.090909     16.000000
 -0.454545  0.181818  0.090909     16.000000
 -0.363636  0.181818  0.090909      8.000000
 -0.181818  0.181818  0.090909      8.000000
 -0.090909  0.181818  0.090909      8.000000
  0.272727  0.272727  0.090909      8.000000
  0.363636  0.272727  0.090909     16.000000
  0.454545  0.272727  0.090909     16.000000
 -0.454545  0.272727  0.090909      8.000000
 -0.272727  0.272727  0.090909      8.000000
 -0.181818  0.272727  0.090909     16.000000
 -0.090909  0.272727  0.090909      8.000000
  0.363636  0.363636  0.090909      8.000000
  0.454545  0.363636  0.090909      8.000000
 -0.363636  0.363636  0.090909      8.000000
 -0.272727  0.363636  0.090909     16.000000
[...]
 -0.272727  0.454545  0.272727      8.000000
 -0.454545 -0.454545  0.272727      8.000000
 -0.363636 -0.454545  0.272727     16.000000
 -0.272727 -0.454545  0.272727      8.000000
 -0.363636 -0.363636  0.272727      8.000000
 -0.272727 -0.363636  0.272727      8.000000
 -0.272727 -0.272727  0.272727      2.000000
 -0.363636  0.363636  0.363636      4.000000
 -0.454545  0.454545  0.363636      8.000000
 -0.363636  0.454545  0.363636      8.000000
 -0.454545 -0.454545  0.363636      8.000000
 -0.363636 -0.454545  0.363636      8.000000
 -0.363636 -0.363636  0.363636      2.000000
 -0.454545  0.454545  0.454545      4.000000
 -0.454545 -0.454545  0.454545      2.000000

 Following cartesian coordinates:
            Coordinates               Weight
  0.000000  0.000000  0.000000      1.000000
  0.000000  0.018553  0.035679      8.000000
  0.000000  0.037106  0.071357      8.000000
  0.000000  0.055659  0.107036      8.000000
  0.000000  0.074212  0.142714      8.000000
 -0.000000  0.092764  0.178393      8.000000
  0.018553  0.018553  0.071357      8.000000
  0.018553  0.037106  0.107036     16.000000
  0.018553  0.055659  0.142714     16.000000
  0.018553  0.074212  0.178393     16.000000
  0.018553  0.092764  0.214072     16.000000
  0.018553 -0.092764 -0.142714     16.000000
  0.018553 -0.074212 -0.107036     16.000000
  0.018553 -0.055659 -0.071357     16.000000
  0.018553 -0.037106 -0.035679     16.000000
  0.018553 -0.018553  0.000000      4.000000
  0.037106  0.037106  0.142714      8.000000
  0.037106  0.055659  0.178393     16.000000
  0.037106  0.074212  0.214072     16.000000
  0.037106  0.092764  0.249750     16.000000
  0.037106 -0.092764 -0.107036     16.000000
  0.037106 -0.074212 -0.071357     16.000000
  0.037106 -0.055659 -0.035679     16.000000
  0.037106 -0.037106  0.000000      4.000000
  0.055659  0.055659  0.214072      8.000000
  0.055659  0.074212  0.249750     16.000000
  0.055659  0.092764  0.285429     16.000000
  0.055659 -0.092764 -0.071357     16.000000
  0.055659 -0.074212 -0.035679     16.000000
  0.055659 -0.055659  0.000000      4.000000
  0.074212  0.074212  0.285429      8.000000
  0.074212  0.092764  0.321107     16.000000
  0.074212 -0.092764 -0.035679     16.000000
  0.074212 -0.074212  0.000000      4.000000
  0.092764  0.092764  0.356786      8.000000
  0.092764 -0.092764 -0.000000      4.000000
  0.037106  0.037106  0.071357      8.000000
  0.037106  0.055659  0.107036     16.000000
  0.037106  0.074212  0.142714     16.000000
  0.037106  0.092764  0.178393     16.000000
  0.037106  0.000000  0.000000      4.000000
  0.055659  0.055659  0.142714      8.000000
  0.055659  0.074212  0.178393     16.000000
  0.055659  0.092764  0.214072     16.000000
  0.055659  0.111317  0.249750     16.000000
  0.055659 -0.074212 -0.107036     16.000000
  0.055659 -0.055659 -0.071357      8.000000
  0.055659 -0.018553 -0.000000      8.000000
  0.055659 -0.000000  0.035679      8.000000
  0.074212  0.074212  0.214072      8.000000
  0.074212  0.092764  0.249750     16.000000
  0.074212  0.111317  0.285429     16.000000
  0.074212 -0.074212 -0.071357      8.000000
  0.074212 -0.037106  0.000000      8.000000
  0.074212 -0.018553  0.035679     16.000000
  0.074212  0.000000  0.071357      8.000000
  0.092764  0.092764  0.285429      8.000000
  0.092764  0.111317  0.321107      8.000000
  0.092764 -0.055659  0.000000      8.000000
  0.092764 -0.037106  0.035679     16.000000
[...]
  0.148423 -0.000000  0.071357      8.000000
 -0.037106 -0.037106 -0.356786      8.000000
 -0.037106 -0.018553 -0.321107     16.000000
 -0.037106  0.000000 -0.285429      8.000000
 -0.018553 -0.018553 -0.285429      8.000000
 -0.018553 -0.000000 -0.249750      8.000000
[...]
 k-point 13 :  -0.3636 0.0909 0.0000  plane waves:     361
 k-point 14 :  -0.2727 0.0909 0.0000  plane waves:     360
 k-point 15 :  -0.1818 0.0909 0.0000  plane waves:     362
 k-point 16 :  -0.0909 0.0909 0.0000  plane waves:     357
 k-point 17 :   0.1818 0.1818 0.0000  plane waves:     354
 k-point 18 :   0.2727 0.1818 0.0000  plane waves:     358
 k-point 19 :   0.3636 0.1818-0.0000  plane waves:     360
 k-point 20 :   0.4545 0.1818-0.0000  plane waves:     359
 k-point 21 :  -0.4545 0.1818-0.0000  plane waves:     359
 k-point 22 :  -0.3636 0.1818 0.0000  plane waves:     364
 k-point 23 :  -0.2727 0.1818-0.0000  plane waves:     365
 k-point 24 :  -0.1818 0.1818 0.0000  plane waves:     358
 k-point 25 :   0.2727 0.2727-0.0000  plane waves:     361
 k-point 26 :   0.3636 0.2727-0.0000  plane waves:     363
 k-point 27 :   0.4545 0.2727 0.0000  plane waves:     363
 k-point 28 :  -0.4545 0.2727 0.0000  plane waves:     362
 k-point 29 :  -0.3636 0.2727-0.0000  plane waves:     366
 k-point 30 :  -0.2727 0.2727-0.0000  plane waves:     372
 k-point 31 :   0.3636 0.3636 0.0000  plane waves:     363
 k-point 32 :   0.4545 0.3636-0.0000  plane waves:     362
 k-point 33 :  -0.4545 0.3636-0.0000  plane waves:     368
 k-point 34 :  -0.3636 0.3636 0.0000  plane waves:     376
 k-point 35 :   0.4545 0.4545-0.0000  plane waves:     365
 k-point 36 :  -0.4545 0.4545-0.0000  plane waves:     376
 k-point 37 :   0.0909 0.0909 0.0909  plane waves:     361
 k-point 38 :   0.1818 0.0909 0.0909  plane waves:     365
 k-point 39 :   0.2727 0.0909 0.0909  plane waves:     358
 k-point 40 :   0.3636 0.0909 0.0909  plane waves:     360
 k-point 41 :  -0.0909 0.0909 0.0909  plane waves:     365
 k-point 42 :   0.1818 0.1818 0.0909  plane waves:     362
 k-point 43 :   0.2727 0.1818 0.0909  plane waves:     357
 k-point 44 :   0.3636 0.1818 0.0909  plane waves:     358
 k-point 45 :   0.4545 0.1818 0.0909  plane waves:     358
 k-point 46 :  -0.4545 0.1818 0.0909  plane waves:     360
 k-point 47 :  -0.3636 0.1818 0.0909  plane waves:     364
 k-point 48 :  -0.1818 0.1818 0.0909  plane waves:     358
 k-point 49 :  -0.0909 0.1818 0.0909  plane waves:     366
 k-point 50 :   0.2727 0.2727 0.0909  plane waves:     359
 k-point 51 :   0.3636 0.2727 0.0909  plane waves:     358
 k-point 52 :   0.4545 0.2727 0.0909  plane waves:     362
 k-point 53 :  -0.4545 0.2727 0.0909  plane waves:     362
 k-point 54 :  -0.2727 0.2727 0.0909  plane waves:     361
 k-point 55 :  -0.1818 0.2727 0.0909  plane waves:     363
 k-point 56 :  -0.0909 0.2727 0.0909  plane waves:     358
 k-point 57 :   0.3636 0.3636 0.0909  plane waves:     360
 k-point 58 :   0.4545 0.3636 0.0909  plane waves:     364
 k-point 59 :  -0.3636 0.3636 0.0909  plane waves:     368
 k-point 60 :  -0.2727 0.3636 0.0909  plane waves:     367
[...]
 k-point 85 :  -0.1818 0.1818 0.1818  plane waves:     369
 k-point 86 :   0.2727 0.2727 0.1818  plane waves:     356
 k-point 87 :   0.3636 0.2727 0.1818  plane waves:     358
 k-point 88 :  -0.2727 0.2727 0.1818  plane waves:     366
 k-point 89 :  -0.1818 0.2727 0.1818  plane waves:     365
 k-point 90 :  -0.3636 0.3636 0.1818  plane waves:     365
 k-point 91 :  -0.2727 0.3636 0.1818  plane waves:     362
 k-point 92 :  -0.1818 0.3636 0.1818  plane waves:     360
 k-point 93 :  -0.4545 0.4545 0.1818  plane waves:     362
 k-point 94 :  -0.3636 0.4545 0.1818  plane waves:     361
 k-point 95 :  -0.2727 0.4545 0.1818  plane waves:     364
 k-point 96 :  -0.1818 0.4545 0.1818  plane waves:     363
 k-point 97 :  -0.4545-0.4545 0.1818  plane waves:     362
 k-point 98 :  -0.3636-0.4545 0.1818  plane waves:     363
 k-point 99 :  -0.2727-0.4545 0.1818  plane waves:     357
 k-point ** :  -0.1818-0.4545 0.1818  plane waves:     356
 k-point ** :  -0.3636-0.3636 0.1818  plane waves:     361
 k-point ** :  -0.2727-0.3636 0.1818  plane waves:     359
 k-point ** :  -0.1818-0.3636 0.1818  plane waves:     353
 k-point ** :  -0.2727-0.2727 0.1818  plane waves:     358
 k-point ** :  -0.1818-0.2727 0.1818  plane waves:     344
 k-point ** :  -0.1818-0.1818 0.1818  plane waves:     363
 k-point ** :  -0.2727 0.2727 0.2727  plane waves:     361
 k-point ** :  -0.3636 0.3636 0.2727  plane waves:     362
 k-point ** :  -0.2727 0.3636 0.2727  plane waves:     362
 k-point ** :  -0.4545 0.4545 0.2727  plane waves:     362
 k-point ** :  -0.3636 0.4545 0.2727  plane waves:     364
 k-point ** :  -0.2727 0.4545 0.2727  plane waves:     361
 k-point ** :  -0.4545-0.4545 0.2727  plane waves:     363
 k-point ** :  -0.3636-0.4545 0.2727  plane waves:     364
 k-point ** :  -0.2727-0.4545 0.2727  plane waves:     361
 k-point ** :  -0.3636-0.3636 0.2727  plane waves:     365
 k-point ** :  -0.2727-0.3636 0.2727  plane waves:     360
 k-point ** :  -0.2727-0.2727 0.2727  plane waves:     364
 k-point ** :  -0.3636 0.3636 0.3636  plane waves:     361
 k-point ** :  -0.4545 0.4545 0.3636  plane waves:     364
 k-point ** :  -0.3636 0.4545 0.3636  plane waves:     364
 k-point ** :  -0.4545-0.4545 0.3636  plane waves:     364
 k-point ** :  -0.3636-0.4545 0.3636  plane waves:     365
 k-point ** :  -0.3636-0.3636 0.3636  plane waves:     360
 k-point ** :  -0.4545 0.4545 0.4545  plane waves:     361
 k-point ** :  -0.4545-0.4545 0.4545  plane waves:     364

 maximum and minimum number of plane-waves per node :       376      344

 maximum number of plane-waves:       376
 maximum index in each direction:
   IXMAX=    5   IYMAX=    5   IZMAX=    5
   IXMIN=   -5   IYMIN=   -5   IZMIN=   -5

 serial   3D FFT for wavefunctions
 parallel 3D FFT for charge:
    minimum data exchange during FFTs selected (reduces bandwidth)

 Broyden mixing: mesh for mixing (old mesh)
   NGX = 11   NGY = 11   NGZ = 11
  (NGX  = 32   NGY  = 32   NGZ  = 32)
  gives a total of   1331 points

 initial charge density was supplied:
 charge density of overlapping atoms calculated
 number of electron       8.0000000 magnetization
 keeping initial charge density in first step

 Maximum index for augmentation-charges          547 (set IRDMAX)

 First call to EWALD:  gamma=   0.567
 Maximum number of real-space cells 4x 4x 3
 Maximum number of reciprocal cells 3x 3x 3

--------------------------------------- Iteration      1(   1)  ---------------------------------------

 eigenvalue-minimisations  :  2040
 total energy-change (2. order) : 0.4976724E+00  (-0.2617377E+03)
 number of electron       8.0000000 magnetization
 augmentation part        8.0000000 magnetization

 Free energy of the ion-electron system (eV)
  alpha Z        PSCENC =         4.40202223
  Ewald energy   TEWEN  =      -265.18101312
  -Hartree energ DENC   =        -2.30415367
  -exchange      EXHF   =         0.00000000
  -V(xc)+E(xc)   XCENC  =       -17.81548033
  PAW double counting   =        65.95520812      -30.76852678
  entropy T*S    EENTRO =        -0.01516316
  eigenvalues    EBANDS =        40.09509325
  atomic energy  EATOM  =       206.12968587
  Solvation  Ediel_sol  =         0.00000000
  free energy    TOTEN  =         0.49767241 eV

  energy without entropy =        0.51283557  energy(sigma->0) =        0.50525399

[...]

 eigenvalue-minimisations  :  3000
 total energy-change (2. order) :-0.1063224E+02  (-0.1019324E+02)
 number of electron       8.0000000 magnetization
 augmentation part        8.0000000 magnetization

[...]

 Broyden mixing:
  rms(total) = 0.14986E+00    rms(broyden)= 0.14986E+00
  rms(prec ) = 0.33525E+00
  weight for this iteration     100.00

[...]

 eigenvalues of (default mixing * dielectric matrix)
  average eigenvalue GAMMA=   2.6686
  2.6686

[...]

 average (electrostatic) potential at core
  the test charge radii are     0.9892
  (the norm of the test charge is              1.0000)
       1 -80.5488       2 -80.5488

 E-fermi :   9.1078     XC(G=0): -10.8920     alpha+bet :-15.6819

 k-point     1 :       0.0000    0.0000    0.0000
  band No.  band energies     occupation
      1      -4.6160      2.00000
      2       6.1827      2.00000
      3       6.2983      2.00000
      4       6.2983      2.00000
      5      10.5251      0.00000
      6      16.7720      0.00000
      7      17.3664      0.00000
      8      17.3665      0.00000

[...]

 soft charge-density along one line, spin component           1
         0         1         2         3         4         5         6         7         8         9
 total charge-density along one line

------------------------ aborting loop because EDIFF is reached ----------------------------------------

  FORCE on cell =-STRESS in cart. coord.  units (eV):
  Direction    XX          YY          ZZ          XY          YZ          ZX
  Alpha Z     4.40202     4.40202     4.40202
  Ewald     -90.96023   -90.96023   -83.26083    -0.00000     0.00000     0.00000
  Hartree     0.55304     0.55304     1.39065    -0.00000    -0.00000    -0.00000
  E(xc)     -25.41936   -25.41936   -25.37647     0.00001     0.00000     0.00000
  Local     -11.17663   -11.17663   -17.46785    -0.00005    -0.00003    -0.00003
  n-local    77.00884    76.78553    76.52613     1.07398    -0.33226    -0.45584
  augment   -12.08673   -12.08673   -11.98719     0.00003     0.00003     0.00003
  Kinetic    59.78412    54.95637    56.68007     3.70521    -1.71798    -3.37059
  Fock        0.00000     0.00000     0.00000     0.00000     0.00000     0.00000
  Total      -0.42045    -0.42045     0.90653    -0.00000     0.00000     0.00000
  in kB     -22.02209   -22.02209    47.48202    -0.00000     0.00000     0.00000

 VOLUME and BASIS-vectors are now :
  energy-cutoff  :      300.00
  volume of cell :       30.59
      direct lattice vectors                 reciprocal lattice vectors
    -2.450000000  2.450000000  1.274000000     0.000000000  0.204081633  0.392464678
     2.450000000 -2.450000000  1.274000000     0.204081633  0.000000000  0.392464678
     2.450000000  2.450000000 -1.274000000     0.204081633  0.204081633 -0.000000000

[...]

 FORCES acting on ions
    electron-ion (+dipol)            ewald-force                    non-local-force                 convergence-correction
   0.456E-06 -.456E-06 -.287E-13   0.198E-14 0.156E-15 0.342E-17   0.122E-16 0.191E-16 -.333E-17   -.557E-08 0.557E-08 0.129E-16
   -.456E-06 0.456E-06 0.891E-14   -.185E-14 0.943E-16 0.891E-15   -.153E-16 0.159E-16 0.634E-17   0.557E-08 -.557E-08 0.774E-16
   0.911E-14 0.922E-14 -.198E-13   0.139E-15 0.250E-15 0.894E-15   -.312E-17 0.350E-16 0.301E-17   -.165E-16 0.108E-16 0.903E-16

 POSITION                                       TOTAL-FORCE (eV/Angst)
      2.45000      0.00000      0.63700         0.000000      0.000000      0.000000
      0.00000      0.00000      0.00000        -0.000000     -0.000000     -0.000000
    total drift:                                0.000000      0.000000     -0.000000

  FREE ENERGIE OF THE ION-ELECTRON SYSTEM (eV)
  free  energy   TOTEN  =       -10.24314065 eV

  energy  without entropy=      -10.22746088  energy(sigma->0) =      -10.23530076

[...]

 eigenvalues of (default mixing * dielectric matrix)
  average eigenvalue GAMMA=   1.3413
  2.2232  0.4595

[...]

 d Force = 0.0000000E+00[ 0.000E+00, 0.000E+00]  d Energy = 0.1473569E-01-0.147E-01
 d Force = 0.0000000E+00[ 0.000E+00, 0.000E+00]  d Ewald  =-0.4262338E-02 0.426E-02

 Steepest descent step on ions:
 trial-energy change:   -0.014736  1 .order   -0.014745   -0.028351   -0.001140
  (g-gl).g = 0.284E-01      g.g   = 0.284E-01  gl.gl    = 0.000E+00
 g(Force)  = 0.148E-46   g(Stress)= 0.284E-01 ortho     = 0.000E+00
 gamma     =   0.00000
 trial     =   1.00000
 opt step  =   1.04189  (harmonic =   1.04189) maximal distance =0.00000000
 next E    =   -10.257910   (d E  =  -0.01477)

[...]

 eigenvalue-minimisations  :  3048
 total energy-change (2. order) :-0.5840880E-04  (-0.4674122E-03)
 number of electron       7.9999991 magnetization
 augmentation part       -0.4729916 magnetization

 Broyden mixing:
  rms(total) = 0.41895E-02    rms(broyden)= 0.41894E-02
  rms(prec ) = 0.12797E-01
  weight for this iteration     100.00

[...]

--------------------------------------- Iteration      4(   2)  ---------------------------------------

 eigenvalue-minimisations  :  1216
 total energy-change (2. order) : 0.4818940E-04  (-0.9562352E-05)
 number of electron       7.9999991 magnetization
 augmentation part       -0.4729916 magnetization

 Free energy of the ion-electron system (eV)
  alpha Z        PSCENC =         4.39607124
  Ewald energy   TEWEN  =      -265.17241690
  -Hartree energ DENC   =        -2.45944940
  -exchange      EXHF   =         0.00000000
  -V(xc)+E(xc)   XCENC  =       -17.58899199
  PAW double counting   =        70.35275903      -35.26680545
  entropy T*S    EENTRO =        -0.01611836
  eigenvalues    EBANDS =        29.36731294
  atomic energy  EATOM  =       206.12968587
  Solvation  Ediel_sol  =         0.00000000
  free energy    TOTEN  =       -10.25795301 eV

  energy without entropy =      -10.24183464  energy(sigma->0) =      -10.24989382

 average (electrostatic) potential at core
  the test charge radii are     0.9892
  (the norm of the test charge is              1.0000)
       1 -80.5587       2 -80.5587

 E-fermi :   9.1042     XC(G=0): -10.8873     alpha+bet :-15.6607

[...]

 k-point   126 :      -0.4545   -0.4545    0.4545
  band No.  band energies     occupation
      1       0.8305      2.00000
      2       0.8467      2.00000
      3       2.4910      2.00000
      4       2.4910      2.00000
      5      12.2080      0.00000
      6      18.6563      0.00000
      7      21.0917      0.00000
      8      21.3549      0.00000

 soft charge-density along one line, spin component           1
         0         1         2         3         4         5         6         7         8         9
 total charge-density along one line

------------------------ aborting loop because EDIFF is reached ----------------------------------------

  FORCE on cell =-STRESS in cart. coord.  units (eV):
  Direction    XX          YY          ZZ          XY          YZ          ZX
  Alpha Z     4.39607     4.39607     4.39607
  Ewald     -88.94727   -88.94727   -87.27812    -0.00000    -0.00000    -0.00000
  Hartree     0.68830     0.68830     1.08307    -0.00000    -0.00000    -0.00000
  E(xc)     -25.43230   -25.43230   -25.32538     0.00001     0.00000     0.00000
  Local     -13.31708   -13.31708   -13.10505    -0.00005    -0.00003    -0.00003
  n-local    77.43087    77.16880    75.62826     1.14982    -0.39843    -0.54641
  augment   -12.10641   -12.10641   -11.90675     0.00003     0.00003     0.00003
  Kinetic    59.85859    54.94291    56.49792     3.63673    -1.54749    -3.26997
  Fock        0.00000     0.00000     0.00000     0.00000     0.00000     0.00000
  Total      -0.01810    -0.01810    -0.00997     0.00000    -0.00000     0.00000
  in kB      -0.94659    -0.94659    -0.52147     0.00000    -0.00000     0.00000

 VOLUME and BASIS-vectors are now :
  energy-cutoff  :      300.00
  volume of cell :       30.63
      direct lattice vectors                 reciprocal lattice vectors
    -2.422030053  2.422030053  1.305359250    -0.000000000  0.206438396  0.383036317
     2.422030053 -2.422030053  1.305359250     0.206438396 -0.000000000  0.383036317
     2.422030053  2.422030053 -1.305359250     0.206438396  0.206438396  0.000000000

  length of vectors
     3.665572524  3.665572524  3.665572524     0.435124846  0.435124846  0.291947980

 FORCES acting on ions
    electron-ion (+dipol)            ewald-force                    non-local-force                 convergence-correction
   0.398E-06 -.398E-06 -.144E-13   0.467E-16 0.348E-15 0.433E-15   0.874E-17 0.180E-17 0.120E-17   -.275E-08 0.275E-08 0.357E-16
   -.398E-06 0.398E-06 -.249E-14   -.876E-16 -.557E-16 -.110E-14   0.899E-17 0.205E-17 -.293E-19   0.275E-08 -.275E-08 0.812E-16
   0.871E-14 0.732E-14 -.169E-13   -.409E-16 0.292E-15 -.665E-15   0.177E-16 0.385E-17 0.117E-17   0.358E-15 0.144E-15 0.117E-15

 POSITION                                       TOTAL-FORCE (eV/Angst)
      2.42203      0.00000      0.65268         0.000000     -0.000000     -0.000000
     -0.00000     -0.00000     -0.00000        -0.000000      0.000000      0.000000
    total drift:                                0.000000      0.000000     -0.000000

  FREE ENERGIE OF THE ION-ELECTRON SYSTEM (eV)
  free  energy   TOTEN  =       -10.25795301 eV

  energy  without entropy=      -10.24183464  energy(sigma->0) =      -10.24989382

 d Force = 0.0000000E+00[ 0.000E+00, 0.000E+00]  d Energy = 0.1612674E-04-0.161E-04
 d Force = 0.0000000E+00[ 0.000E+00, 0.000E+00]  d Ewald  =-0.2977872E-02 0.298E-02

 reached required accuracy - stopping structural energy minimisation
 writing wavefunctions