 vasp.5.4.4.18Apr17-6-g9f103f2a35 (build Dec 09 2018 21:25:21) complex

 executed on IFC18.0.1.163_CrayMP date 2019.03.20  09:14:38

 INCAR:
 POTCAR:   PAW_PBE Si 05Jan2001

 POTCAR:   PAW_PBE Si 05Jan2001
   VRHFIN =Si: s2p2

   TITEL  = PAW_PBE Si 05Jan2001
   POMASS =   28.085; ZVAL   =    4.000    mass and valenz
   ENMAX  =  245.345; ENMIN  =  184.009 eV
   QCUT   =   -4.246; QGAM   =    8.493    optimization parameters

   Description
     l     E      TYP  RCUT    TYP  RCUT
     0   .000     23  1.900
     0   .000     23  1.900
     1   .000     23  1.900
     1   .000     23  1.900
     2   .000      7  1.900

 PAW_PBE Si 05Jan2001                   :

 POSCAR: Si2
  positions in direct lattice
 exchange correlation table for  LEXCH =        8
   RHO(1)=    0.500       N(1)  =     2000
   RHO(2)=  100.500       N(2)  =     4000

 ion  position               nearest neighbor table
   1  0.250  0.750  0.500-   2 2.53   2 2.53   2 2.53   2 2.53   2 3.11   2 3.11   2 3.11   2 3.11

   2  0.000  0.000  0.000-   1 2.53   1 2.53   1 2.53   1 2.53   1 3.11   1 3.11   1 3.11   1 3.11

  LATTYP: Found a body centered tetragonal cell.
 ALAT       =     4.9000000000
 C/A-ratio  =     0.5200000000

  Lattice vectors:

 A1 = (  -2.4500000000,   2.4500000000,   1.2740000000)
 A2 = (   2.4500000000,  -2.4500000000,   1.2740000000)
 A3 = (   2.4500000000,   2.4500000000,  -1.2740000000)

Analysis of symmetry for initial positions (statically):
 Subroutine PRICEL returns:
 Original cell was already a primitive cell.

 Routine SETGRP: Setting up the symmetry group for a
 body centered tetragonal supercell.

 Subroutine GETGRP returns: Found 16 space group operations
 (whereof  8 operations were pure point group operations)
 out of a pool of 16 trial point group operations.

The static configuration has the point symmetry D_2d.
 The point group associated with its full space group is D_4h.

Analysis of symmetry for dynamics (positions and initial velocities):
 Subroutine PRICEL returns:
 Original cell was already a primitive cell.

 Routine SETGRP: Setting up the symmetry group for a
 body centered tetragonal supercell.

 Subroutine GETGRP returns: Found 16 space group operations
 (whereof  8 operations were pure point group operations)
 out of a pool of 16 trial point group operations.

The dynamic configuration has the point symmetry D_2d.
 The point group associated with its full space group is D_4h.

 Subroutine INISYM returns: Found 16 space group operations
 (whereof  8 operations are pure point group operations),
 and found     1 'primitive' translations

 KPOINTS: Automatic kpoint scheme

Automatic generation of k-mesh.
Space group operators:
 irot       det(A)        alpha          n_x          n_y          n_z        tau_x        tau_y        tau_z
    1     1.000000     0.000000     1.000000     0.000000     0.000000     0.000000     0.000000     0.000000
    2    -1.000000    90.000000    -0.000000    -0.000000    -1.000000     0.000000     0.000000     0.000000
    3     1.000000   180.000000    -0.000000    -0.000000    -1.000000     0.000000     0.000000     0.000000
    4    -1.000000    90.000000    -0.000000     0.000000     1.000000     0.000000     0.000000     0.000000
    5    -1.000000   180.000000     0.000000    -1.000000     0.000000     0.000000     0.000000     0.000000
    6     1.000000   180.000000     0.707107     0.707107    -0.000000     0.000000     0.000000     0.000000
    7    -1.000000   180.000000     1.000000     0.000000     0.000000     0.000000     0.000000     0.000000
    8     1.000000   180.000000     0.707107    -0.707107     0.000000     0.000000     0.000000     0.000000
    9    -1.000000     0.000000     1.000000     0.000000     0.000000     0.250000     0.750000     0.500000
   10     1.000000    90.000000    -0.000000    -0.000000    -1.000000     0.250000     0.750000     0.500000
   11    -1.000000   180.000000    -0.000000    -0.000000    -1.000000     0.250000     0.750000     0.500000
   12     1.000000    90.000000    -0.000000     0.000000     1.000000     0.250000     0.750000     0.500000
   13     1.000000   180.000000     0.000000    -1.000000     0.000000     0.250000     0.750000     0.500000
   14    -1.000000   180.000000     0.707107     0.707107    -0.000000     0.250000     0.750000     0.500000
   15     1.000000   180.000000     1.000000     0.000000     0.000000     0.250000     0.750000     0.500000
   16    -1.000000   180.000000     0.707107    -0.707107     0.000000     0.250000     0.750000     0.500000

 Subroutine IBZKPT returns following result:

 Found     18 irreducible k-points:

 Following reciprocal coordinates:
            Coordinates               Weight
  0.000000  0.000000  0.000000      1.000000
  0.200000  0.000000 -0.000000      8.000000
  0.400000  0.000000 -0.000000      8.000000
  0.200000  0.200000 -0.000000      8.000000
  0.400000  0.200000 -0.000000     16.000000
 -0.400000  0.200000  0.000000     16.000000
 -0.200000  0.200000  0.000000      4.000000
  0.400000  0.400000 -0.000000      8.000000
 -0.400000  0.400000  0.000000      4.000000
  0.200000  0.200000  0.200000      8.000000
 -0.200000  0.200000  0.200000      4.000000
 -0.400000  0.400000  0.200000      8.000000
 -0.200000  0.400000  0.200000      8.000000
 -0.400000 -0.400000  0.200000      8.000000
 -0.200000 -0.400000  0.200000      8.000000
 -0.200000 -0.200000  0.200000      2.000000
 -0.400000  0.400000  0.400000      4.000000
 -0.400000 -0.400000  0.400000      2.000000

 Following cartesian coordinates:
            Coordinates               Weight
  0.000000  0.000000  0.000000      1.000000
  0.000000  0.040816  0.078493      8.000000
  0.000000  0.081633  0.156986      8.000000
  0.040816  0.040816  0.156986      8.000000
  0.040816  0.081633  0.235479     16.000000
  0.040816 -0.081633 -0.078493     16.000000
  0.040816 -0.040816  0.000000      4.000000
  0.081633  0.081633  0.313972      8.000000
  0.081633 -0.081633  0.000000      4.000000
  0.081633  0.081633  0.156986      8.000000
  0.081633  0.000000 -0.000000      4.000000
  0.122449 -0.040816  0.000000      8.000000
  0.122449  0.000000  0.078493      8.000000
 -0.040816 -0.040816 -0.313972      8.000000
 -0.040816  0.000000 -0.235479      8.000000
 -0.000000  0.000000 -0.156986      2.000000
  0.163265  0.000000 -0.000000      4.000000
 -0.000000  0.000000 -0.313972      2.000000

 SYSTEM =  unknown system
 POSCAR =  Si2

 Startparameter for this run:
   NWRITE =      2    write-flag & timer
   PREC   = normal    normal or accurate (medium, high low for compatibility)
   ISTART =      0    job   : 0-new  1-cont  2-samecut
   ICHARG =      2    charge: 1-file 2-atom 10-const
   ISPIN  =      1    spin polarized calculation?
   LNONCOLLINEAR =      F non collinear calculations
   LSORBIT =      F    spin-orbit coupling
   INIWAV =      1    electr: 0-lowe 1-rand  2-diag
   LASPH  =      F    aspherical Exc in radial PAW
   METAGGA=      F    non-selfconsistent MetaGGA calc.

 Electronic Relaxation 1
   ENCUT  =  200.0 eV  14.70 Ry    3.83 a.u.   4.26  4.26  4.26*2*pi/ulx,y,z
   ENINI  =  200.0     initial cutoff
   ENAUG  =  322.1 eV  augmentation charge cutoff
   NELM   =     60;   NELMIN=  2; NELMDL= -5     # of ELM steps
   EDIFF  = 0.4E-03   stopping-criterion for ELM
   LREAL  =      F    real-space projection
   NLSPLINE    = F    spline interpolate recip. space projectors
   LCOMPAT=      F    compatible to vasp.4.4
   GGA_COMPAT  = T    GGA compatible to vasp.4.4-vasp.4.6
   LMAXPAW     = -100 max onsite density
   LMAXMIX     =    2 max onsite mixed and CHGCAR
   VOSKOWN=      0    Vosko Wilk Nusair interpolation
   ROPT   =    0.00000
 Ionic relaxation
   EDIFFG = -.1E-01   stopping-criterion for IOM
   NSW    =     15    number of steps for IOM
   NBLOCK =      1;   KBLOCK =     15    inner block; outer block
   IBRION =      2    ionic relax: 0-MD 1-quasi-New 2-CG
   NFREE  =      1    steps in history (QN), initial steepest desc. (CG)
   ISIF   =      3    stress and relaxation
   IWAVPR =     11    prediction:  0-non 1-charg 2-wave 3-comb
   ISYM   =      2    0-nonsym 1-usesym 2-fastsym
   LCORR  =      T    Harris-Foulkes like correction to forces

   POTIM  = 0.5000    time-step for ionic-motion
   TEIN   =    0.0    initial temperature
   TEBEG  =    0.0;   TEEND  =   0.0 temperature during run
   SMASS  =  -3.00    Nose mass-parameter (am)
   estimated Nose-frequenzy (Omega)   =  0.10E-29 period in steps =****** mass=  -0.311E-27a.u.
   SCALEE = 1.0000    scale energy and forces
   NPACO  =    256;   APACO  = 16.0  distance and # of slots for P.C.
   PSTRESS=    0.0 pullay stress

  Mass of Ions in am
   POMASS =  28.09
  Ionic Valenz
   ZVAL   =   4.00
  Atomic Wigner-Seitz radii
  virtual crystal weights
   VCA    =   1.00
   NELECT =       8.0000    total number of electrons
   NUPDOWN=      -1.0000    fix difference up-down

 DOS related values:
   EMIN   =  10.00;   EMAX   =-10.00  energy-range for DOS
   EFERMI =   0.00
   ISMEAR =     0;   SIGMA  =   0.20  broadening in eV -4-tet -1-fermi 0-gaus

 Electronic relaxation 2 (details)
   IALGO  =     38    algorithm
   LDIAG  =      T    sub-space diagonalisation (order eigenvalues)
   LSUBROT=      F    optimize rotation matrix (better conditioning)
   TURBO    =      0    0=normal 1=particle mesh
   IRESTART =      0    0=no restart 2=restart with 2 vectors
   NREBOOT  =      0    no. of reboots
   NMIN     =      0    reboot dimension
   EREF     =   0.00    reference energy to select bands
   IMIX   =      4    mixing-type and parameters
     AMIX     =   0.40;   BMIX     =  1.00
     AMIX_MAG =   1.60;   BMIX_MAG =  1.00
     AMIN     =   0.10
     WC   =   100.;   INIMIX=   1;  MIXPRE=   1;  MAXMIX= -45

 Intra band minimization:
   WEIMIN = 0.0010     energy-eigenvalue tresh-hold
   EBREAK =  0.13E-04  absolut break condition
   DEPER  =   0.30     relativ break condition

   TIME   =   0.40     timestep for ELM

  volume/ion in A,a.u.               =      15.29       103.21
  Fermi-wavevector in a.u.,A,eV,Ry     =   1.046930  1.978411 14.912834  1.096062
  Thomas-Fermi vector in A             =   2.181789

 Write flags
   LWAVE        =      T    write WAVECAR
   LDOWNSAMPLE  =      F    k-point downsampling of WAVECAR
   LCHARG       =      T    write CHGCAR
   LVTOT        =      F    write LOCPOT, total local potential
   LVHAR        =      F    write LOCPOT, Hartree potential only
   LELF         =      F    write electronic localiz. function (ELF)
   LORBIT       =      0    0 simple, 1 ext, 2 COOP (PROOUT), +10 PAW based schemes

 Dipole corrections
   LMONO  =      F    monopole corrections only (constant potential shift)
   LDIPOL =      F    correct potential (dipole corrections)
   IDIPOL =      0    1-x, 2-y, 3-z, 4-all directions
   EPSILON=  1.0000000 bulk dielectric constant

 Exchange correlation treatment:
   GGA     =    --    GGA type
   VOSKOWN=      0    Vosko Wilk Nusair interpolation
   LHFCALC =     F    Hartree Fock is set to
   LHFONE  =     F    Hartree Fock one center treatment
   AEXX    =    0.0000 exact exchange contribution

 Linear response parameters
[...]
    after iterative eigenvector-optimisation
 modified Broyden-mixing scheme, WC =      100.0
 initial mixing is a Kerker type mixing with AMIX =  0.4000 and BMIX =      1.0000
 Hartree-type preconditioning will be used
 using additional bands            4
 reciprocal scheme for non local part
 use partial core corrections
 calculate Harris-corrections to forces
   (improved forces if not selfconsistent)
 use gradient corrections
 use of overlap-Matrix (Vanderbilt PP)
 Gauss-broadening in eV      SIGMA  =   0.20

  energy-cutoff  :      200.00
  volume of cell :       30.59
      direct lattice vectors                 reciprocal lattice vectors
    -2.450000000  2.450000000  1.274000000     0.000000000  0.204081633  0.392464678
     2.450000000 -2.450000000  1.274000000     0.204081633  0.000000000  0.392464678
     2.450000000  2.450000000 -1.274000000     0.204081633  0.204081633 -0.000000000

  length of vectors
     3.691622408  3.691622408  3.691622408     0.442354876  0.442354876  0.288615013

 k-points in units of 2pi/SCALE and weight: Automatic kpoint scheme
   0.00000000  0.00000000  0.00000000       0.008
   0.00000000  0.04081633  0.07849294       0.064
   0.00000000  0.08163265  0.15698587       0.064
   0.04081633  0.04081633  0.15698587       0.064
   0.04081633  0.08163265  0.23547881       0.128
   0.04081633 -0.08163265 -0.07849294       0.128
   0.04081633 -0.04081633  0.00000000       0.032
   0.08163265  0.08163265  0.31397174       0.064
   0.08163265 -0.08163265  0.00000000       0.032
   0.08163265  0.08163265  0.15698587       0.064
   0.08163265  0.00000000  0.00000000       0.032
   0.12244898 -0.04081633  0.00000000       0.064
   0.12244898  0.00000000  0.07849294       0.064
  -0.04081633 -0.04081633 -0.31397174       0.064
  -0.04081633  0.00000000 -0.23547881       0.064
   0.00000000  0.00000000 -0.15698587       0.016
   0.16326531  0.00000000  0.00000000       0.032
   0.00000000  0.00000000 -0.31397174       0.016

 k-points in reciprocal lattice and weights: Automatic kpoint scheme
   0.00000000  0.00000000  0.00000000       0.008
   0.20000000  0.00000000 -0.00000000       0.064
   0.40000000  0.00000000 -0.00000000       0.064
   0.20000000  0.20000000 -0.00000000       0.064
   0.40000000  0.20000000 -0.00000000       0.128
  -0.40000000  0.20000000  0.00000000       0.128
  -0.20000000  0.20000000  0.00000000       0.032
   0.40000000  0.40000000 -0.00000000       0.064
  -0.40000000  0.40000000  0.00000000       0.032
   0.20000000  0.20000000  0.20000000       0.064
  -0.20000000  0.20000000  0.20000000       0.032
  -0.40000000  0.40000000  0.20000000       0.064
  -0.20000000  0.40000000  0.20000000       0.064
  -0.40000000 -0.40000000  0.20000000       0.064
  -0.20000000 -0.40000000  0.20000000       0.064
  -0.20000000 -0.20000000  0.20000000       0.016
  -0.40000000  0.40000000  0.40000000       0.032
  -0.40000000 -0.40000000  0.40000000       0.016

 position of ions in fractional coordinates (direct lattice)
   0.25000000  0.75000000  0.50000000
   0.00000000  0.00000000  0.00000000

 position of ions in cartesian coordinates  (Angst):
   2.45000000  0.00000000  0.63700000
   0.00000000  0.00000000  0.00000000

 k-point  1 :   0.0000 0.0000 0.0000  plane waves:     183
 k-point  2 :   0.2000 0.0000-0.0000  plane waves:     194
 k-point  3 :   0.4000 0.0000-0.0000  plane waves:     201
 k-point  4 :   0.2000 0.2000-0.0000  plane waves:     198
 k-point  5 :   0.4000 0.2000-0.0000  plane waves:     198
 k-point  6 :  -0.4000 0.2000 0.0000  plane waves:     197
 k-point  7 :  -0.2000 0.2000 0.0000  plane waves:     192
 k-point  8 :   0.4000 0.4000-0.0000  plane waves:     200
 k-point  9 :  -0.4000 0.4000 0.0000  plane waves:     190
 k-point 10 :   0.2000 0.2000 0.2000  plane waves:     198
 k-point 11 :  -0.2000 0.2000 0.2000  plane waves:     198
 k-point 12 :  -0.4000 0.4000 0.2000  plane waves:     191
 k-point 13 :  -0.2000 0.4000 0.2000  plane waves:     192
 k-point 14 :  -0.4000-0.4000 0.2000  plane waves:     196
 k-point 15 :  -0.2000-0.4000 0.2000  plane waves:     195
 k-point 16 :  -0.2000-0.2000 0.2000  plane waves:     199
 k-point 17 :  -0.4000 0.4000 0.4000  plane waves:     198
 k-point 18 :  -0.4000-0.4000 0.4000  plane waves:     203

 maximum and minimum number of plane-waves per node :       203      183

 maximum number of plane-waves:       203
 maximum index in each direction:
   IXMAX=    4   IYMAX=    4   IZMAX=    4
   IXMIN=   -4   IYMIN=   -4   IZMIN=   -4

 serial   3D FFT for wavefunctions
 parallel 3D FFT for charge:
    minimum data exchange during FFTs selected (reduces bandwidth)

 Broyden mixing: mesh for mixing (old mesh)
   NGX =  9   NGY =  9   NGZ =  9
  (NGX  = 28   NGY  = 28   NGZ  = 28)
  gives a total of    729 points

 initial charge density was supplied:
 charge density of overlapping atoms calculated
 number of electron       8.0000000 magnetization
 keeping initial charge density in first step

 Maximum index for augmentation-charges          442 (set IRDMAX)

 First call to EWALD:  gamma=   0.567
 Maximum number of real-space cells 4x 4x 3
 Maximum number of reciprocal cells 3x 3x 3

--------------------------------------- Iteration      1(   1)  ---------------------------------------

 eigenvalue-minimisations  :   296
 total energy-change (2. order) :-0.2865475E+01  (-0.2031349E+03)
 number of electron       8.0000000 magnetization
 augmentation part        8.0000000 magnetization

 Free energy of the ion-electron system (eV)
  alpha Z        PSCENC =         4.40202223
  Ewald energy   TEWEN  =      -265.18101312
  -Hartree energ DENC   =        -2.30415367
  -exchange      EXHF   =         0.00000000
  -V(xc)+E(xc)   XCENC  =       -17.81545108
  PAW double counting   =        65.95520812      -30.76852678
  entropy T*S    EENTRO =        -0.01589035
  eigenvalues    EBANDS =        36.74985708
  atomic energy  EATOM  =       206.11247263
  Solvation  Ediel_sol  =         0.00000000
  free energy    TOTEN  =        -2.86547494 eV

  energy without entropy =       -2.84958459  energy(sigma->0) =       -2.85752976

[...]

 Broyden mixing:
  rms(total) = 0.14616E+00    rms(broyden)= 0.14615E+00
  rms(prec ) = 0.32808E+00
  weight for this iteration     100.00

[...]

 eigenvalue-minimisations  :   384
 total energy-change (2. order) : 0.6487763E-02  (-0.1855691E-03)
 number of electron       7.9999993 magnetization
 augmentation part       -0.4710021 magnetization

[...]

 eigenvalues of (default mixing * dielectric matrix)
  average eigenvalue GAMMA=   2.6642
  2.6642

[...]

 average (electrostatic) potential at core
  the test charge radii are     0.9892
  (the norm of the test charge is              1.0000)
       1 -80.5488       2 -80.5488

 E-fermi :   9.1676     XC(G=0): -10.8942     alpha+bet :-15.6819

 k-point     1 :       0.0000    0.0000    0.0000
  band No.  band energies     occupation
      1      -4.6160      2.00000
      2       6.1960      2.00000
      3       6.3020      2.00000
      4       6.3020      2.00000
      5      10.6017      0.00000
      6      16.9501      0.00000
      7      17.3752      0.00000
      8      17.3753      0.00000

[...]

 soft charge-density along one line, spin component           1
         0         1         2         3         4         5         6         7         8         9
 total charge-density along one line

------------------------ aborting loop because EDIFF is reached ----------------------------------------

  FORCE on cell =-STRESS in cart. coord.  units (eV):
  Direction    XX          YY          ZZ          XY          YZ          ZX
  Alpha Z     4.40202     4.40202     4.40202
  Ewald     -90.96023   -90.96023   -83.26083    -0.00000     0.00000     0.00000
  Hartree     0.55055     0.55055     1.38436     0.00000     0.00000     0.00000
  E(xc)     -25.44219   -25.44219   -25.38918     0.00002     0.00001     0.00001
  Local     -11.42384   -11.42384   -17.44540    -0.00005    -0.00005    -0.00005
  n-local    77.19343    77.48019    77.03103     1.05915    -0.49002    -0.37986
  augment   -12.11368   -12.11368   -11.94902     0.00005     0.00005     0.00005
  Kinetic    63.65262    52.71533    54.51994     5.01058    -4.08000    -5.33965
  Fock        0.00000     0.00000     0.00000     0.00000     0.00000     0.00000
  Total       0.53342     0.53342    -0.70709    -0.00000     0.00000     0.00000
  in kB      27.93948    27.93948   -37.03577    -0.00000     0.00000     0.00000

 VOLUME and BASIS-vectors are now :
  energy-cutoff  :      200.00
  volume of cell :       30.59
      direct lattice vectors                 reciprocal lattice vectors
    -2.450000000  2.450000000  1.274000000     0.000000000  0.204081633  0.392464678
     2.450000000 -2.450000000  1.274000000     0.204081633  0.000000000  0.392464678
     2.450000000  2.450000000 -1.274000000     0.204081633  0.204081633 -0.000000000

[...]

 FORCES acting on ions
    electron-ion (+dipol)            ewald-force                    non-local-force                 convergence-correction
   0.932E-06 -.932E-06 0.697E-15   0.198E-14 0.156E-15 0.342E-17   0.397E-16 -.891E-17 -.240E-17   -.345E-07 0.345E-07 0.226E-16
   -.932E-06 0.932E-06 0.453E-14   -.185E-14 0.943E-16 0.891E-15   -.760E-16 0.281E-16 -.174E-17   0.345E-07 -.345E-07 -.130E-16
   -.160E-13 0.123E-13 0.523E-14   0.139E-15 0.250E-15 0.894E-15   -.363E-16 0.192E-16 -.414E-17   0.978E-16 0.774E-16 0.957E-17

 POSITION                                       TOTAL-FORCE (eV/Angst)
      2.45000      0.00000      0.63700        -0.000000      0.000000     -0.000000
      0.00000      0.00000      0.00000         0.000000     -0.000000      0.000000
    total drift:                               -0.000000      0.000000      0.000000

  FREE ENERGIE OF THE ION-ELECTRON SYSTEM (eV)
  free  energy   TOTEN  =       -10.19693443 eV

  energy  without entropy=      -10.17787182  energy(sigma->0) =      -10.18740313

[...]

 d Force = 0.0000000E+00[ 0.000E+00, 0.000E+00]  d Energy = 0.1864328E-01-0.186E-01
 d Force = 0.0000000E+00[ 0.000E+00, 0.000E+00]  d Ewald  =-0.9449644E+00 0.945E+00

 Steepest descent step on ions:
 trial-energy change:   -0.018643  1 .order   -0.016592   -0.025787   -0.007397
  (g-gl).g = 0.258E-01      g.g   = 0.258E-01  gl.gl    = 0.000E+00
 g(Force)  = 0.778E-46   g(Stress)= 0.258E-01 ortho     = 0.000E+00
 gamma     =   0.00000
 trial     =   1.00000
 opt step  =   1.22134  (harmonic =   1.40226) maximal distance =0.00000000
 next E    =   -10.216419   (d E  =  -0.01948)

[...]

 eigenvalues of (default mixing * dielectric matrix)
  average eigenvalue GAMMA=   2.2611
  2.2611

[...]

 d Force = 0.0000000E+00[ 0.000E+00, 0.000E+00]  d Energy = 0.4121985E-04-0.412E-04
 d Force = 0.0000000E+00[ 0.000E+00, 0.000E+00]  d Ewald  =-0.4284260E-01 0.428E-01

[...]

 d Force = 0.0000000E+00[ 0.000E+00, 0.000E+00]  d Energy =-0.3543565E-04 0.354E-04
 d Force = 0.0000000E+00[ 0.000E+00, 0.000E+00]  d Ewald  =-0.4522022E-01 0.452E-01

[...]

 d Force = 0.0000000E+00[ 0.000E+00, 0.000E+00]  d Energy = 0.2658239E-04-0.266E-04
 d Force = 0.0000000E+00[ 0.000E+00, 0.000E+00]  d Ewald  = 0.2757662E-01-0.276E-01

[...]

 Broyden mixing:
  rms(total) = 0.75062E-05    rms(broyden)= 0.71237E-05
  rms(prec ) = 0.21350E-04
  weight for this iteration     100.00

[...]

 Broyden mixing:
  rms(total) = 0.42704E-05    rms(broyden)= 0.35599E-05
  rms(prec ) = 0.10669E-04
  weight for this iteration     100.00
  WARNING: grid for Broyden might be to small

[...]

 d Force = 0.0000000E+00[ 0.000E+00, 0.000E+00]  d Energy = 0.1208349E-08-0.121E-08
 d Force = 0.0000000E+00[ 0.000E+00, 0.000E+00]  d Ewald  = 0.6586440E-04-0.659E-04

[...]

 eigenvalue-minimisations  :   144
 total energy-change (2. order) :-0.8542997E-09  (-0.5019232E-10)
 number of electron       8.0000017 magnetization
 augmentation part       -0.4736585 magnetization

 Broyden mixing:
  rms(total) = 0.29547E-05    rms(broyden)= 0.17817E-05
  rms(prec ) = 0.53392E-05
  weight for this iteration     100.00
  WARNING: grid for Broyden might be to small

[...]

--------------------------------------- Iteration     15(   2)  ---------------------------------------

 eigenvalue-minimisations  :   144
 total energy-change (2. order) : 0.6741629E-09  (-0.2214533E-11)
 number of electron       8.0000017 magnetization
 augmentation part       -0.4736585 magnetization

 Free energy of the ion-electron system (eV)
  alpha Z        PSCENC =         4.35613597
  Ewald energy   TEWEN  =      -263.97707751
  -Hartree energ DENC   =        -2.69397362
  -exchange      EXHF   =         0.00000000
  -V(xc)+E(xc)   XCENC  =       -17.60969822
  PAW double counting   =        71.36060764      -36.28102600
  entropy T*S    EENTRO =        -0.02418180
  eigenvalues    EBANDS =        28.54006466
  atomic energy  EATOM  =       206.11247263
  Solvation  Ediel_sol  =         0.00000000
  free energy    TOTEN  =       -10.21667625 eV

  energy without entropy =      -10.19249445  energy(sigma->0) =      -10.20458535

 average (electrostatic) potential at core
  the test charge radii are     0.9892
  (the norm of the test charge is              1.0000)
       1 -80.6923       2 -80.6923

 E-fermi :   8.9996     XC(G=0): -10.8464     alpha+bet :-15.5185

[...]

 k-point    18 :      -0.4000   -0.4000    0.4000
  band No.  band energies     occupation
      1       1.0264      2.00000
      2       1.0375      2.00000
      3       3.0526      2.00000
      4       3.0526      2.00000
      5       9.6825      0.00000
      6      18.2241      0.00000
      7      19.6055      0.00000
      8      19.6055      0.00000

 soft charge-density along one line, spin component           1
         0         1         2         3         4         5         6         7         8         9
 total charge-density along one line

------------------------ aborting loop because EDIFF is reached ----------------------------------------

  FORCE on cell =-STRESS in cart. coord.  units (eV):
  Direction    XX          YY          ZZ          XY          YZ          ZX
  Alpha Z     4.35614     4.35614     4.35614
  Ewald     -92.81823   -92.81823   -78.34068    -0.00000     0.00000     0.00000
  Hartree     0.44441     0.44441     1.80515     0.00000     0.00000     0.00000
  E(xc)     -25.36826   -25.36826   -25.39632     0.00002     0.00001     0.00001
  Local      -9.17654    -9.17654   -22.99706    -0.00005    -0.00005    -0.00005
  n-local    76.68639    76.75548    78.11065     0.99913    -0.35726    -0.48759
  augment   -12.06816   -12.06816   -12.03360     0.00005     0.00005     0.00005
  Kinetic    62.69391    53.08379    54.46561     4.55937    -2.92204    -5.02886
  Fock        0.00000     0.00000     0.00000     0.00000     0.00000     0.00000
  Total      -0.02085    -0.02085    -0.03013     0.00000     0.00000     0.00000
  in kB      -1.08055    -1.08055    -1.56151     0.00000     0.00000     0.00000

 VOLUME and BASIS-vectors are now :
  energy-cutoff  :      200.00
  volume of cell :       30.91
      direct lattice vectors                 reciprocal lattice vectors
    -2.489875493  2.489875493  1.246513943     0.000000000  0.200813254  0.401118658
     2.489875493 -2.489875493  1.246513943     0.200813254  0.000000000  0.401118658
     2.489875493  2.489875493 -1.246513943     0.200813254  0.200813254 -0.000000000

  length of vectors
     3.735338934  3.735338934  3.735338934     0.448577909  0.448577909  0.283992827

 FORCES acting on ions
    electron-ion (+dipol)            ewald-force                    non-local-force                 convergence-correction
   0.888E-06 -.888E-06 0.713E-15   0.180E-14 -.194E-15 0.339E-15   0.290E-18 -.309E-16 -.607E-17   0.304E-10 -.304E-10 0.202E-16
   -.888E-06 0.888E-06 0.428E-14   -.196E-14 0.146E-15 -.139E-14   0.937E-17 0.232E-16 0.117E-16   -.304E-10 0.304E-10 -.704E-16
   -.157E-13 0.152E-13 0.499E-14   -.158E-15 -.475E-16 -.105E-14   0.966E-17 -.769E-17 0.562E-17   -.208E-15 -.234E-15 -.502E-16

 POSITION                                       TOTAL-FORCE (eV/Angst)
      2.48988      0.00000      0.62326         0.000000     -0.000000     -0.000000
      0.00000     -0.00000      0.00000        -0.000000      0.000000      0.000000
    total drift:                               -0.000000      0.000000      0.000000

  FREE ENERGIE OF THE ION-ELECTRON SYSTEM (eV)
  free  energy   TOTEN  =       -10.21667625 eV

  energy  without entropy=      -10.19249445  energy(sigma->0) =      -10.20458535

 d Force = 0.0000000E+00[ 0.000E+00, 0.000E+00]  d Energy =-0.8944312E-10 0.894E-10
 d Force = 0.0000000E+00[ 0.000E+00, 0.000E+00]  d Ewald  = 0.3293211E-04-0.329E-04

 writing wavefunctions