 vasp.5.4.4.18Apr17-6-g9f103f2a35 (build Dec 09 2018 21:25:21) complex

 executed on IFC18.0.1.163_CrayMP date 2019.03.20  09:04:38

 INCAR:
 POTCAR:   PAW_PBE Si 05Jan2001

 POTCAR:   PAW_PBE Si 05Jan2001
   VRHFIN =Si: s2p2

   TITEL  = PAW_PBE Si 05Jan2001
   POMASS =   28.085; ZVAL   =    4.000    mass and valenz
   ENMAX  =  245.345; ENMIN  =  184.009 eV
   QCUT   =   -4.246; QGAM   =    8.493    optimization parameters

   Description
     l     E      TYP  RCUT    TYP  RCUT
     0   .000     23  1.900
     0   .000     23  1.900
     1   .000     23  1.900
     1   .000     23  1.900
     2   .000      7  1.900

 PAW_PBE Si 05Jan2001                   :

 POSCAR: Si2
  positions in direct lattice
 exchange correlation table for  LEXCH =        8
   RHO(1)=    0.500       N(1)  =     2000
   RHO(2)=  100.500       N(2)  =     4000

 ion  position               nearest neighbor table
   1  0.250  0.750  0.500-   2 2.53   2 2.53   2 2.53   2 2.53   2 3.11   2 3.11   2 3.11   2 3.11

   2  0.000  0.000  0.000-   1 2.53   1 2.53   1 2.53   1 2.53   1 3.11   1 3.11   1 3.11   1 3.11

  LATTYP: Found a body centered tetragonal cell.
 ALAT       =     4.9000000000
 C/A-ratio  =     0.5200000000

  Lattice vectors:

 A1 = (  -2.4500000000,   2.4500000000,   1.2740000000)
 A2 = (   2.4500000000,  -2.4500000000,   1.2740000000)
 A3 = (   2.4500000000,   2.4500000000,  -1.2740000000)

Analysis of symmetry for initial positions (statically):
 Subroutine PRICEL returns:
 Original cell was already a primitive cell.

 Routine SETGRP: Setting up the symmetry group for a
 body centered tetragonal supercell.

 Subroutine GETGRP returns: Found 16 space group operations
 (whereof  8 operations were pure point group operations)
 out of a pool of 16 trial point group operations.

The static configuration has the point symmetry D_2d.
 The point group associated with its full space group is D_4h.

Analysis of symmetry for dynamics (positions and initial velocities):
 Subroutine PRICEL returns:
 Original cell was already a primitive cell.

 Routine SETGRP: Setting up the symmetry group for a
 body centered tetragonal supercell.

 Subroutine GETGRP returns: Found 16 space group operations
 (whereof  8 operations were pure point group operations)
 out of a pool of 16 trial point group operations.

The dynamic configuration has the point symmetry D_2d.
 The point group associated with its full space group is D_4h.

 Subroutine INISYM returns: Found 16 space group operations
 (whereof  8 operations are pure point group operations),
 and found     1 'primitive' translations

 KPOINTS: Automatic kpoint scheme

Automatic generation of k-mesh.
Space group operators:
 irot       det(A)        alpha          n_x          n_y          n_z        tau_x        tau_y        tau_z
    1     1.000000     0.000000     1.000000     0.000000     0.000000     0.000000     0.000000     0.000000
    2    -1.000000    90.000000    -0.000000    -0.000000    -1.000000     0.000000     0.000000     0.000000
    3     1.000000   180.000000    -0.000000    -0.000000    -1.000000     0.000000     0.000000     0.000000
    4    -1.000000    90.000000    -0.000000     0.000000     1.000000     0.000000     0.000000     0.000000
    5    -1.000000   180.000000     0.000000    -1.000000     0.000000     0.000000     0.000000     0.000000
    6     1.000000   180.000000     0.707107     0.707107    -0.000000     0.000000     0.000000     0.000000
    7    -1.000000   180.000000     1.000000     0.000000     0.000000     0.000000     0.000000     0.000000
    8     1.000000   180.000000     0.707107    -0.707107     0.000000     0.000000     0.000000     0.000000
    9    -1.000000     0.000000     1.000000     0.000000     0.000000     0.250000     0.750000     0.500000
   10     1.000000    90.000000    -0.000000    -0.000000    -1.000000     0.250000     0.750000     0.500000
   11    -1.000000   180.000000    -0.000000    -0.000000    -1.000000     0.250000     0.750000     0.500000
   12     1.000000    90.000000    -0.000000     0.000000     1.000000     0.250000     0.750000     0.500000
   13     1.000000   180.000000     0.000000    -1.000000     0.000000     0.250000     0.750000     0.500000
   14    -1.000000   180.000000     0.707107     0.707107    -0.000000     0.250000     0.750000     0.500000
   15     1.000000   180.000000     1.000000     0.000000     0.000000     0.250000     0.750000     0.500000
   16    -1.000000   180.000000     0.707107    -0.707107     0.000000     0.250000     0.750000     0.500000

 Subroutine IBZKPT returns following result:

 Found     99 irreducible k-points:

 Following reciprocal coordinates:
            Coordinates               Weight
  0.050000  0.050000  0.050000    128.000000
  0.150000  0.050000  0.050000    256.000000
  0.250000  0.050000  0.050000    256.000000
  0.350000  0.050000  0.050000    256.000000
  0.450000  0.050000  0.050000    128.000000
 -0.050000  0.050000  0.050000     64.000000
  0.150000  0.150000  0.050000    128.000000
  0.250000  0.150000  0.050000    256.000000
  0.350000  0.150000  0.050000    256.000000
  0.450000  0.150000  0.050000    256.000000
 -0.450000  0.150000  0.050000    256.000000
 -0.350000  0.150000  0.050000    256.000000
 -0.250000  0.150000  0.050000    128.000000
 -0.150000  0.150000  0.050000    128.000000
 -0.050000  0.150000  0.050000    128.000000
  0.250000  0.250000  0.050000    128.000000
  0.350000  0.250000  0.050000    256.000000
  0.450000  0.250000  0.050000    256.000000
 -0.450000  0.250000  0.050000    256.000000
 -0.350000  0.250000  0.050000    128.000000
 -0.250000  0.250000  0.050000    128.000000
 -0.150000  0.250000  0.050000    256.000000
 -0.050000  0.250000  0.050000    128.000000
  0.350000  0.350000  0.050000    128.000000
  0.450000  0.350000  0.050000    256.000000
 -0.450000  0.350000  0.050000    128.000000
 -0.350000  0.350000  0.050000    128.000000
 -0.250000  0.350000  0.050000    256.000000
 -0.150000  0.350000  0.050000    256.000000
 -0.050000  0.350000  0.050000    128.000000
  0.450000  0.450000  0.050000     64.000000
 -0.450000  0.450000  0.050000    128.000000
 -0.350000  0.450000  0.050000    256.000000
 -0.250000  0.450000  0.050000    256.000000
 -0.150000  0.450000  0.050000    256.000000
 -0.050000  0.450000  0.050000    128.000000
 -0.450000 -0.450000  0.050000    128.000000
 -0.350000 -0.450000  0.050000    256.000000
 -0.250000 -0.450000  0.050000    256.000000
 -0.150000 -0.450000  0.050000    256.000000
 -0.050000 -0.450000  0.050000    128.000000
 -0.350000 -0.350000  0.050000    128.000000
 -0.250000 -0.350000  0.050000    256.000000
 -0.150000 -0.350000  0.050000    256.000000
 -0.050000 -0.350000  0.050000    128.000000
 -0.250000 -0.250000  0.050000    128.000000
 -0.150000 -0.250000  0.050000    256.000000
 -0.050000 -0.250000  0.050000    128.000000
 -0.150000 -0.150000  0.050000    128.000000
 -0.050000 -0.150000  0.050000    128.000000
 -0.050000 -0.050000  0.050000     32.000000
  0.150000  0.150000  0.150000    128.000000
  0.250000  0.150000  0.150000    256.000000
  0.350000  0.150000  0.150000    128.000000
 -0.150000  0.150000  0.150000     64.000000
  0.250000  0.250000  0.150000    128.000000
  0.350000  0.250000  0.150000    256.000000
  0.450000  0.250000  0.150000    128.000000
 -0.250000  0.250000  0.150000    128.000000
 -0.150000  0.250000  0.150000    128.000000
[...]
 -0.250000  0.450000  0.250000    128.000000
 -0.450000 -0.450000  0.250000    128.000000
 -0.350000 -0.450000  0.250000    256.000000
 -0.250000 -0.450000  0.250000    128.000000
 -0.350000 -0.350000  0.250000    128.000000
 -0.250000 -0.350000  0.250000    128.000000
 -0.250000 -0.250000  0.250000     32.000000
 -0.350000  0.350000  0.350000     64.000000
 -0.450000  0.450000  0.350000    128.000000
 -0.350000  0.450000  0.350000    128.000000
 -0.450000 -0.450000  0.350000    128.000000
 -0.350000 -0.450000  0.350000    128.000000
 -0.350000 -0.350000  0.350000     32.000000
 -0.450000  0.450000  0.450000     64.000000
 -0.450000 -0.450000  0.450000     32.000000

 Following cartesian coordinates:
            Coordinates               Weight
  0.020408  0.020408  0.039246    128.000000
  0.020408  0.040816  0.078493    256.000000
  0.020408  0.061224  0.117739    256.000000
  0.020408  0.081633  0.156986    256.000000
  0.020408  0.102041  0.196232    128.000000
  0.020408  0.000000 -0.000000     64.000000
  0.040816  0.040816  0.117739    128.000000
  0.040816  0.061224  0.156986    256.000000
  0.040816  0.081633  0.196232    256.000000
  0.040816  0.102041  0.235479    256.000000
  0.040816 -0.081633 -0.117739    256.000000
  0.040816 -0.061224 -0.078493    256.000000
  0.040816 -0.040816 -0.039246    128.000000
  0.040816 -0.020408  0.000000    128.000000
  0.040816  0.000000  0.039246    128.000000
  0.061224  0.061224  0.196232    128.000000
  0.061224  0.081633  0.235479    256.000000
  0.061224  0.102041  0.274725    256.000000
  0.061224 -0.081633 -0.078493    256.000000
  0.061224 -0.061224 -0.039246    128.000000
  0.061224 -0.040816  0.000000    128.000000
  0.061224 -0.020408  0.039246    256.000000
  0.061224  0.000000  0.078493    128.000000
  0.081633  0.081633  0.274725    128.000000
  0.081633  0.102041  0.313972    256.000000
  0.081633 -0.081633 -0.039246    128.000000
  0.081633 -0.061224  0.000000    128.000000
  0.081633 -0.040816  0.039246    256.000000
  0.081633 -0.020408  0.078493    256.000000
  0.081633  0.000000  0.117739    128.000000
  0.102041  0.102041  0.353218     64.000000
  0.102041 -0.081633  0.000000    128.000000
  0.102041 -0.061224  0.039246    256.000000
  0.102041 -0.040816  0.078493    256.000000
  0.102041 -0.020408  0.117739    256.000000
  0.102041  0.000000  0.156986    128.000000
 -0.081633 -0.081633 -0.353218    128.000000
 -0.081633 -0.061224 -0.313972    256.000000
 -0.081633 -0.040816 -0.274725    256.000000
 -0.081633 -0.020408 -0.235479    256.000000
 -0.081633 -0.000000 -0.196232    128.000000
 -0.061224 -0.061224 -0.274725    128.000000
 -0.061224 -0.040816 -0.235479    256.000000
 -0.061224 -0.020408 -0.196232    256.000000
 -0.061224 -0.000000 -0.156986    128.000000
 -0.040816 -0.040816 -0.196232    128.000000
 -0.040816 -0.020408 -0.156986    256.000000
 -0.040816 -0.000000 -0.117739    128.000000
 -0.020408 -0.020408 -0.117739    128.000000
 -0.020408  0.000000 -0.078493    128.000000
 -0.000000  0.000000 -0.039246     32.000000
  0.061224  0.061224  0.117739    128.000000
  0.061224  0.081633  0.156986    256.000000
  0.061224  0.102041  0.196232    128.000000
  0.061224  0.000000  0.000000     64.000000
  0.081633  0.081633  0.196232    128.000000
  0.081633  0.102041  0.235479    256.000000
  0.081633  0.122449  0.274725    128.000000
  0.081633 -0.020408  0.000000    128.000000
  0.081633  0.000000  0.039246    128.000000
[...]
  0.142857  0.000000  0.078493    128.000000
 -0.040816 -0.040816 -0.353218    128.000000
 -0.040816 -0.020408 -0.313972    256.000000
 -0.040816  0.000000 -0.274725    128.000000
 -0.020408 -0.020408 -0.274725    128.000000
 -0.020408  0.000000 -0.235479    128.000000
[...]
 k-point  2 :   0.1500 0.0500 0.0500  plane waves:     130
 k-point  3 :   0.2500 0.0500 0.0500  plane waves:     130
 k-point  4 :   0.3500 0.0500 0.0500  plane waves:     127
 k-point  5 :   0.4500 0.0500 0.0500  plane waves:     122
 k-point  6 :  -0.0500 0.0500 0.0500  plane waves:     127
 k-point  7 :   0.1500 0.1500 0.0500  plane waves:     125
 k-point  8 :   0.2500 0.1500 0.0500  plane waves:     127
 k-point  9 :   0.3500 0.1500 0.0500  plane waves:     124
 k-point 10 :   0.4500 0.1500 0.0500  plane waves:     127
 k-point 11 :  -0.4500 0.1500 0.0500  plane waves:     131
 k-point 12 :  -0.3500 0.1500 0.0500  plane waves:     131
 k-point 13 :  -0.2500 0.1500 0.0500  plane waves:     130
 k-point 14 :  -0.1500 0.1500 0.0500  plane waves:     132
 k-point 15 :  -0.0500 0.1500 0.0500  plane waves:     131
 k-point 16 :   0.2500 0.2500 0.0500  plane waves:     126
 k-point 17 :   0.3500 0.2500 0.0500  plane waves:     127
 k-point 18 :   0.4500 0.2500 0.0500  plane waves:     129
 k-point 19 :  -0.4500 0.2500 0.0500  plane waves:     129
 k-point 20 :  -0.3500 0.2500 0.0500  plane waves:     130
 k-point 21 :  -0.2500 0.2500 0.0500  plane waves:     134
 k-point 22 :  -0.1500 0.2500 0.0500  plane waves:     131
 k-point 23 :  -0.0500 0.2500 0.0500  plane waves:     131
 k-point 24 :   0.3500 0.3500 0.0500  plane waves:     124
 k-point 25 :   0.4500 0.3500 0.0500  plane waves:     126
 k-point 26 :  -0.4500 0.3500 0.0500  plane waves:     127
 k-point 27 :  -0.3500 0.3500 0.0500  plane waves:     128
 k-point 28 :  -0.2500 0.3500 0.0500  plane waves:     129
 k-point 29 :  -0.1500 0.3500 0.0500  plane waves:     130
 k-point 30 :  -0.0500 0.3500 0.0500  plane waves:     132
 k-point 31 :   0.4500 0.4500 0.0500  plane waves:     130
 k-point 32 :  -0.4500 0.4500 0.0500  plane waves:     133
 k-point 33 :  -0.3500 0.4500 0.0500  plane waves:     130
 k-point 34 :  -0.2500 0.4500 0.0500  plane waves:     128
 k-point 35 :  -0.1500 0.4500 0.0500  plane waves:     130
 k-point 36 :  -0.0500 0.4500 0.0500  plane waves:     128
 k-point 37 :  -0.4500-0.4500 0.0500  plane waves:     128
 k-point 38 :  -0.3500-0.4500 0.0500  plane waves:     124
 k-point 39 :  -0.2500-0.4500 0.0500  plane waves:     126
 k-point 40 :  -0.1500-0.4500 0.0500  plane waves:     126
 k-point 41 :  -0.0500-0.4500 0.0500  plane waves:     124
 k-point 42 :  -0.3500-0.3500 0.0500  plane waves:     123
 k-point 43 :  -0.2500-0.3500 0.0500  plane waves:     122
 k-point 44 :  -0.1500-0.3500 0.0500  plane waves:     124
 k-point 45 :  -0.0500-0.3500 0.0500  plane waves:     125
 k-point 46 :  -0.2500-0.2500 0.0500  plane waves:     123
 k-point 47 :  -0.1500-0.2500 0.0500  plane waves:     123
 k-point 48 :  -0.0500-0.2500 0.0500  plane waves:     128
 k-point 49 :  -0.1500-0.1500 0.0500  plane waves:     127
 k-point 50 :  -0.0500-0.1500 0.0500  plane waves:     131
 k-point 51 :  -0.0500-0.0500 0.0500  plane waves:     131
 k-point 52 :   0.1500 0.1500 0.1500  plane waves:     127
 k-point 53 :   0.2500 0.1500 0.1500  plane waves:     129
 k-point 54 :   0.3500 0.1500 0.1500  plane waves:     126
 k-point 55 :  -0.1500 0.1500 0.1500  plane waves:     129
 k-point 56 :   0.2500 0.2500 0.1500  plane waves:     128
 k-point 57 :   0.3500 0.2500 0.1500  plane waves:     128
 k-point 58 :   0.4500 0.2500 0.1500  plane waves:     131
 k-point 59 :  -0.2500 0.2500 0.1500  plane waves:     129
 k-point 60 :  -0.1500 0.2500 0.1500  plane waves:     129
[...]
 k-point 85 :  -0.2500 0.4500 0.2500  plane waves:     131
 k-point 86 :  -0.4500-0.4500 0.2500  plane waves:     131
 k-point 87 :  -0.3500-0.4500 0.2500  plane waves:     128
 k-point 88 :  -0.2500-0.4500 0.2500  plane waves:     125
 k-point 89 :  -0.3500-0.3500 0.2500  plane waves:     121
 k-point 90 :  -0.2500-0.3500 0.2500  plane waves:     121
 k-point 91 :  -0.2500-0.2500 0.2500  plane waves:     115
 k-point 92 :  -0.3500 0.3500 0.3500  plane waves:     133
 k-point 93 :  -0.4500 0.4500 0.3500  plane waves:     131
 k-point 94 :  -0.3500 0.4500 0.3500  plane waves:     133
 k-point 95 :  -0.4500-0.4500 0.3500  plane waves:     128
 k-point 96 :  -0.3500-0.4500 0.3500  plane waves:     126
 k-point 97 :  -0.3500-0.3500 0.3500  plane waves:     122
 k-point 98 :  -0.4500 0.4500 0.4500  plane waves:     128
 k-point 99 :  -0.4500-0.4500 0.4500  plane waves:     126

 maximum and minimum number of plane-waves per node :       134      115

 maximum number of plane-waves:       134
 maximum index in each direction:
   IXMAX=    4   IYMAX=    4   IZMAX=    3
   IXMIN=   -4   IYMIN=   -4   IZMIN=   -4

 serial   3D FFT for wavefunctions
 parallel 3D FFT for charge:
    minimum data exchange during FFTs selected (reduces bandwidth)

 Broyden mixing: mesh for mixing (old mesh)
   NGX =  7   NGY =  7   NGZ =  7
  (NGX  = 24   NGY  = 24   NGZ  = 24)
  gives a total of    343 points

 initial charge density was supplied:
 charge density of overlapping atoms calculated
 number of electron       8.0000000 magnetization
 keeping initial charge density in first step

 Maximum index for augmentation-charges          241 (set IRDMAX)

 First call to EWALD:  gamma=   0.567
 Maximum number of real-space cells 4x 4x 3
 Maximum number of reciprocal cells 3x 3x 3

--------------------------------------- Iteration      1(   1)  ---------------------------------------

 eigenvalue-minimisations  :  1656
 total energy-change (2. order) :-0.5352195E+01  (-0.1733776E+03)
 number of electron       8.0000000 magnetization
 augmentation part        8.0000000 magnetization

 Free energy of the ion-electron system (eV)
  alpha Z        PSCENC =         4.40202223
  Ewald energy   TEWEN  =      -265.18101312
  -Hartree energ DENC   =        -2.30415367
  -exchange      EXHF   =         0.00000000
  -V(xc)+E(xc)   XCENC  =       -17.81530915
  PAW double counting   =        65.95520812      -30.76852678
  entropy T*S    EENTRO =        -0.00964988
  eigenvalues    EBANDS =        34.27739034
  atomic energy  EATOM  =       206.09183643
  Solvation  Ediel_sol  =         0.00000000
  free energy    TOTEN  =        -5.35219548 eV

  energy without entropy =       -5.34254561  energy(sigma->0) =       -5.34737054

[...]

 Broyden mixing:
  rms(total) = 0.14996E+00    rms(broyden)= 0.14986E+00
  rms(prec ) = 0.33718E+00
  weight for this iteration     100.00

[...]

 eigenvalue-minimisations  :  1920
 total energy-change (2. order) : 0.8400354E-02  (-0.1721233E-03)
 number of electron       8.0000045 magnetization
 augmentation part       -0.4667307 magnetization

[...]

 eigenvalues of (default mixing * dielectric matrix)
  average eigenvalue GAMMA=   2.6624
  2.6624

[...]

 average (electrostatic) potential at core
  the test charge radii are     0.9892
  (the norm of the test charge is              1.0000)
       1 -80.5556       2 -80.5556

 E-fermi :   9.1135     XC(G=0): -10.8933     alpha+bet :-15.6819

 k-point     1 :       0.0500    0.0500    0.0500
  band No.  band energies     occupation
      1      -4.2727      2.00000
      2       4.7414      2.00000
      3       6.6125      2.00000
      4       7.7613      2.00000
      5      11.6095      0.00000
      6      15.1460      0.00000
      7      16.1770      0.00000
      8      17.0159      0.00000

[...]

 soft charge-density along one line, spin component           1
         0         1         2         3         4         5         6         7         8         9
 total charge-density along one line

------------------------ aborting loop because EDIFF is reached ----------------------------------------

  FORCE on cell =-STRESS in cart. coord.  units (eV):
  Direction    XX          YY          ZZ          XY          YZ          ZX
  Alpha Z     4.40202     4.40202     4.40202
  Ewald     -90.96023   -90.96023   -83.26083    -0.00000     0.00000     0.00000
  Hartree     0.55613     0.55613     1.40604     0.00000    -0.00000    -0.00000
  E(xc)     -25.43006   -25.43006   -25.38877     0.00012     0.00006     0.00006
  Local     -11.26513   -11.26513   -17.74856    -0.00004    -0.00012    -0.00012
  n-local    77.29220    77.37912    77.07456     1.09080    -0.35811    -0.61217
  augment   -11.98558   -11.98558   -11.89391     0.00008     0.00008     0.00008
  Kinetic    57.06392    57.35437    56.11619     3.23549    -1.77267    -3.49395
  Fock        0.00000     0.00000     0.00000     0.00000     0.00000     0.00000
  Total      -0.13804    -0.13804     0.70673    -0.00000     0.00000     0.00000
  in kB      -7.23025    -7.23025    37.01708    -0.00000     0.00000     0.00000

 VOLUME and BASIS-vectors are now :
  energy-cutoff  :      150.00
  volume of cell :       30.59
      direct lattice vectors                 reciprocal lattice vectors
    -2.450000000  2.450000000  1.274000000     0.000000000  0.204081633  0.392464678
     2.450000000 -2.450000000  1.274000000     0.204081633  0.000000000  0.392464678
     2.450000000  2.450000000 -1.274000000     0.204081633  0.204081633 -0.000000000

[...]

 FORCES acting on ions
    electron-ion (+dipol)            ewald-force                    non-local-force                 convergence-correction
   -.279E-04 0.279E-04 -.814E-14   0.198E-14 0.156E-15 0.342E-17   -.159E-16 -.205E-17 0.136E-16   -.346E-06 0.346E-06 0.851E-16
   0.279E-04 -.279E-04 0.349E-15   -.185E-14 0.943E-16 0.891E-15   0.395E-16 -.229E-16 -.932E-17   0.346E-06 -.346E-06 -.236E-15
   -.390E-14 0.311E-14 -.779E-14   0.139E-15 0.250E-15 0.894E-15   0.236E-16 -.250E-16 0.425E-17   -.173E-15 -.483E-16 -.151E-15

 POSITION                                       TOTAL-FORCE (eV/Angst)
      2.45000      0.00000      0.63700        -0.000000      0.000000     -0.000000
      0.00000      0.00000      0.00000         0.000000     -0.000000      0.000000
    total drift:                               -0.000000      0.000000     -0.000000

  FREE ENERGIE OF THE ION-ELECTRON SYSTEM (eV)
  free  energy   TOTEN  =       -10.11955348 eV

  energy  without entropy=      -10.10310264  energy(sigma->0) =      -10.11132806

[...]

 d Force = 0.0000000E+00[ 0.000E+00, 0.000E+00]  d Energy = 0.8091190E-02-0.809E-02
 d Force = 0.0000000E+00[ 0.000E+00, 0.000E+00]  d Ewald  =-0.8228589E+00 0.823E+00

 Steepest descent step on ions:
 trial-energy change:   -0.008091  1 .order   -0.008870   -0.012967   -0.004772
  (g-gl).g = 0.130E-01      g.g   = 0.130E-01  gl.gl    = 0.000E+00
 g(Force)  = 0.193E-43   g(Stress)= 0.130E-01 ortho     = 0.000E+00
 gamma     =   0.00000
 trial     =   1.00000
 opt step  =   1.58235  (harmonic =   1.58235) maximal distance =0.00000000
 next E    =   -10.129813   (d E  =  -0.01026)

[...]

 d Force = 0.0000000E+00[ 0.000E+00, 0.000E+00]  d Energy = 0.6042917E-02-0.604E-02
 d Force = 0.0000000E+00[ 0.000E+00, 0.000E+00]  d Ewald  = 0.1028865E+01-0.103E+01

 Conjugate gradient step on ions:
 trial-energy change:   -0.006043  1 .order   -0.005574   -0.007803   -0.003346
  (g-gl).g = 0.145E-01      g.g   = 0.133E-01  gl.gl    = 0.130E-01
 g(Force)  = 0.110E-43   g(Stress)= 0.133E-01 ortho     =-0.118E-02
 gamma     =   1.11908
 trial     =   0.64999
 opt step  =   1.13792  (harmonic =   1.13792) maximal distance =0.00000000
 next E    =   -10.137534   (d E  =  -0.00683)

[...]

 eigenvalues of (default mixing * dielectric matrix)
  average eigenvalue GAMMA=   1.5085
  0.7528  2.2642

[...]

 d Force = 0.0000000E+00[ 0.000E+00, 0.000E+00]  d Energy = 0.5894739E-03-0.589E-03
 d Force = 0.0000000E+00[ 0.000E+00, 0.000E+00]  d Ewald  =-0.3455371E+00 0.346E+00

[...]

 d Force = 0.0000000E+00[ 0.000E+00, 0.000E+00]  d Energy =-0.4539187E-03 0.454E-03
 d Force = 0.0000000E+00[ 0.000E+00, 0.000E+00]  d Ewald  =-0.2992007E+00 0.299E+00

[...]

 eigenvalue-minimisations  :   792
 total energy-change (2. order) : 0.2213199E-08  (-0.1401235E-07)
 number of electron       7.9999986 magnetization
 augmentation part       -0.4687237 magnetization

[...]

 Broyden mixing:
  rms(total) = 0.64735E-04    rms(broyden)= 0.63824E-04
  rms(prec ) = 0.19747E-03
  weight for this iteration     100.00

[...]

--------------------------------------- Iteration     15(   2)  ---------------------------------------

 eigenvalue-minimisations  :   792
 total energy-change (2. order) :-0.8438747E-08  (-0.3449774E-08)
 number of electron       7.9999986 magnetization
 augmentation part       -0.4687235 magnetization

 Free energy of the ion-electron system (eV)
  alpha Z        PSCENC =         4.35724149
  Ewald energy   TEWEN  =      -264.33226031
  -Hartree energ DENC   =        -2.54955372
  -exchange      EXHF   =         0.00000000
  -V(xc)+E(xc)   XCENC  =       -17.58838793
  PAW double counting   =        72.33833986      -37.26422164
  entropy T*S    EENTRO =        -0.01600668
  eigenvalues    EBANDS =        28.82549858
  atomic energy  EATOM  =       206.09183643
  Solvation  Ediel_sol  =         0.00000000
  free energy    TOTEN  =       -10.13751391 eV

  energy without entropy =      -10.12150723  energy(sigma->0) =      -10.12951057

 average (electrostatic) potential at core
  the test charge radii are     0.9892
  (the norm of the test charge is              1.0000)
       1 -80.6796       2 -80.6796

 E-fermi :   9.0107     XC(G=0): -10.8524     alpha+bet :-15.5224

[...]

 k-point    99 :      -0.4500   -0.4500    0.4500
  band No.  band energies     occupation
      1       1.0472      2.00000
      2       1.0811      2.00000
      3       2.5282      2.00000
      4       2.5282      2.00000
      5      11.0090      0.00000
      6      17.6707      0.00000
      7      21.2492      0.00000
      8      21.2492      0.00000

 soft charge-density along one line, spin component           1
         0         1         2         3         4         5         6         7         8         9
 total charge-density along one line

------------------------ aborting loop because EDIFF is reached ----------------------------------------

  FORCE on cell =-STRESS in cart. coord.  units (eV):
  Direction    XX          YY          ZZ          XY          YZ          ZX
  Alpha Z     4.35724     4.35724     4.35724
  Ewald     -86.32851   -86.32851   -91.67546     0.00000    -0.00000     0.00000
  Hartree     0.89989     0.89989     0.74971     0.00000    -0.00000    -0.00000
  E(xc)     -25.41718   -25.41718   -25.25267     0.00009     0.00005     0.00005
  Local     -16.06251   -16.06251    -8.63308    -0.00005    -0.00012    -0.00012
  n-local    78.17256    78.16489    75.14493     1.28714    -0.50273    -0.62867
  augment   -12.01914   -12.01914   -11.76968     0.00008     0.00008     0.00008
  Kinetic    54.69683    58.06262    57.04687     2.89223    -1.61287    -2.31826
  Fock        0.00000     0.00000     0.00000     0.00000     0.00000     0.00000
  Total      -0.02176    -0.02176    -0.03213     0.00000     0.00000     0.00000
  in kB      -1.12814    -1.12814    -1.66575     0.00000     0.00000     0.00000

 VOLUME and BASIS-vectors are now :
  energy-cutoff  :      150.00
  volume of cell :       30.90
      direct lattice vectors                 reciprocal lattice vectors
    -2.392880939  2.392880939  1.349273582     0.000000000  0.208953146  0.370569769
     2.392880939 -2.392880939  1.349273582     0.208953146  0.000000000  0.370569769
     2.392880939  2.392880939 -1.349273582     0.208953146  0.208953146 -0.000000000

  length of vectors
     3.643116465  3.643116465  3.643116465     0.425421404  0.425421404  0.295504373

 FORCES acting on ions
    electron-ion (+dipol)            ewald-force                    non-local-force                 convergence-correction
   -.193E-04 0.193E-04 -.133E-13   0.269E-14 -.152E-14 0.860E-15   0.122E-15 -.107E-15 -.814E-17   -.161E-07 0.161E-07 0.158E-15
   0.193E-04 -.193E-04 0.397E-14   -.267E-14 0.187E-14 -.209E-15   -.149E-15 0.943E-16 0.205E-16   0.161E-07 -.161E-07 -.199E-15
   -.854E-14 0.288E-14 -.938E-14   0.205E-16 0.353E-15 0.651E-15   -.271E-16 -.132E-16 0.124E-16   -.698E-16 0.263E-15 -.408E-16

 POSITION                                       TOTAL-FORCE (eV/Angst)
      2.39288      0.00000      0.67464        -0.000000      0.000000     -0.000000
      0.00000     -0.00000      0.00000         0.000000     -0.000000      0.000000
    total drift:                               -0.000000      0.000000     -0.000000

  FREE ENERGIE OF THE ION-ELECTRON SYSTEM (eV)
  free  energy   TOTEN  =       -10.13751391 eV

  energy  without entropy=      -10.12150723  energy(sigma->0) =      -10.12951057

 d Force = 0.0000000E+00[ 0.000E+00, 0.000E+00]  d Energy = 0.4366385E-06-0.437E-06
 d Force = 0.0000000E+00[ 0.000E+00, 0.000E+00]  d Ewald  = 0.2193923E-02-0.219E-02

 writing wavefunctions